&CONTROL 
 calculation = 'scf' 
 restart_mode = 'from_scratch'
 nstep = 1 
 outdir= './OER' 
 pseudo_dir = "~/PSEUDO"
dipfield = .TRUE. 
 tefield = .TRUE. 
 wf_collect = .TRUE. 
 disk_io = 'none' 
 tprnfor = .true.
 / 

 &SYSTEM
ibrav = 0
    degauss = 0.01
    ecutrho = 500
    ecutwfc = 50
    nat = 158
    nspin = 2
    ntyp = 5
    occupations = 'smearing'
    smearing = 'gaussian'
    vdw_corr = 'DFT-D'
    starting_magnetization(1) = 1
    starting_magnetization(2) = 1
    starting_magnetization(3) = 1
    starting_magnetization(4) = 1
    edir = 3
    eamp = 0.0
    emaxpos = 0.75
/
&ELECTRONS
    electron_maxstep = 150
    mixing_beta = 0.1
    startingpot = 'atomic'
    startingwfc = 'atomic+random'
    scf_must_converge = .FALSE.
    mixing_mode = 'local-TF'
/
&IONS
    ion_dynamics = 'bfgs'
/
K_POINTS gamma
ATOMIC_SPECIES
  Ni   58.693   Ni.pbe-n-rrkjus_psl.1.0.0.UPF
  Mn   54.938   Mn.pbe-spn-rrkjus_psl.0.3.1.UPF
  P    30.973   P.pbe-n-rrkjus_psl.1.0.0.UPF
  O    15.999   O.pbe-rrkjus.UPF
  H    1.0079   H.pbe-rrkjus.UPF

CELL_PARAMETERS angstrom
9.4474829294  0.0000000000  0.0000000000
  0.0305814238  10.2221506046  0.0000000000
  0.0000000000  0.0000000000  32.1655934253

ATOMIC_POSITIONS {angstrom} 
  Ni      2.3791222700      7.8374280804     15.8662034228
  Ni      4.6552287704      7.2870677205     12.9933804753
  Mn     -0.0180489358      2.7331953878     16.1661657304
  Ni      2.4282827690      2.1336866913     13.0208019531
  Ni      9.4317371596     10.1386397272     14.5237376727
  Ni      2.3957475825      4.9917589259     14.5827019520
  Ni      7.1119317436      7.8431674023     15.8800585874
  Mn      9.3434948884      7.2502593438     12.9637369814
  Mn      4.7274594389      2.7645570627     16.0886066843
  Ni      7.1592104531      2.1432862424     13.0369576114
  Ni      4.7048978988     10.1209669610     14.5427731099
  Ni      7.1225567988      5.0277498625     14.5326637212
   P      2.0015963415      9.1582954084     13.0313040064
   P      4.4027895160      6.1209912599     16.0220477363
   P      2.6755750381      0.8777142244     16.0096688601
   P      0.3950867935      3.9749882757     13.1062958995
   O      1.2628041216      8.5158345446     14.3087716715
   O      3.6467844679      6.6212382027     14.6466848704
   O      3.4008853513      1.4920244829     14.6883567967
   O      1.1225313517      3.3266829602     14.3740300466
   O      1.4446811378      8.3167251077     11.8545960465
   O      3.8418789833      7.0552771807     17.0806958758
   O      3.2219491801      1.7560438410     17.1436553225
   O      0.9560540851      3.1424251685     11.9253239693
   O      0.9368009673      5.4324904910     13.1001777994
   O      3.2450671849      9.6377382649     16.0065679902
   O      3.5800829119      3.9250820376     13.2051281365
   O      1.1276475725      0.9414632294     15.9086646918
   O      1.2055629661      6.1196581037     15.8817728953
   O      3.9007844252      4.6344632662     16.0807380368
   O      1.3966477980      0.3872195579     13.0500222961
   O      3.5388418794      9.0860295031     13.1465475926
   P      6.6840507443      9.1594817238     13.0299694899
   P      9.1104123639      6.0727006348     16.0538574512
   P      7.4052057792      0.8921901335     16.0625237872
   P      5.1174906833      4.0251402949     13.0901079937
   O      5.9583764689      8.4785916662     14.3013935016
   O      8.3653767848      6.6510715282     14.7017637290
   O      8.1702473610      1.5873272983     14.7807340019
   O      5.8631311983      3.3799540821     14.3589968719
   O      6.1249266276      8.3241820022     11.8473791925
   O      8.5413563923      6.9816423368     17.1316309240
   O      7.9331568586      1.7394856932     17.2177128853
   O      5.6822371506      3.1744136814     11.9239933139
   O      5.6585685704      5.4850996308     13.0719404693
   O      7.9692102653      9.6487141418     15.9798914586
   O      8.2993335880      3.9161167904     13.1737667993
   O      5.8640060231      0.9544785800     15.9206690858
   O      5.9503678370      6.1447402326     15.8781335105
   O      8.5521122973      4.5977984361     15.9856377868
   O      6.1111626515      0.3977018274     13.0875510534
   O      8.2213178257      9.0992865841     13.1443383649
  Ni      2.2865932276      7.7185113740     10.1079392575
  Ni      4.6227323024      7.1259782878      7.0640042782
  Mn      0.0804473868      2.5789062059     10.1613020121
  Ni      2.4168985750      1.9644574775      7.0841475609
  Ni      9.4398858074      9.9355235468      8.5787441720
  Ni      2.3526410507      4.8653024081      8.5902128070
  Ni      6.9657525885      7.7091129798     10.0997874733
  Mn      9.3143611083      7.0965945418      7.0137194507
  Mn      4.8045666521      2.6032034357     10.1628320820
  Ni      7.1167782512      1.9599956345      7.0792628603
  Ni      4.7062796372      9.9416029950      8.5910379236
  Ni      7.0564283985      4.8629777039      8.5799029064
   P      2.0027943491      8.9729125273      7.1171786542
   P      4.3264829709      5.9072233150     10.0622718687
   P      2.6975864721      0.6842279838     10.0618768477
   P      0.3600548718      3.8098064712      7.1433522946
   O      1.2782399310      8.3313556485      8.4015115952
   O      3.5801899233      6.5418743157      8.7780981808
   O      3.4110096246      1.3409065578      8.7782800461
   O      1.1145193192      3.1710799061      8.4034019657
   O      1.4401034437      8.1327170307      5.9433336368
   O      3.7742239617      6.7348726356     11.2476937640
   O      3.2376292769      1.5444217644     11.2328131654
   O      0.9344982929      2.9813971073      5.9719616593
   O      0.8901473601      5.2731065912      7.1513881205
   O      3.3125681011      9.4611400544     10.0571958355
   O      3.5429527111      3.7631038396      7.2320949309
   O      1.1604369075      0.7225831644      9.9613544840
   O      1.1377598861      5.9454910082      9.9490547382
   O      3.7796208059      4.4484532944     10.0392347111
   O      1.4012333057      0.2043804807      7.1291638066
   O      3.5415658549      8.9137683769      7.2064629609
   P      6.6669951488      8.9683994847      7.1059492519
   P      9.0462348336      5.8767477338     10.0366362681
   P      7.4142576596      0.6712898237     10.0539918676
   P      5.0801790915      3.8577847517      7.1343820182
   O      5.9478651911      8.3028344013      8.3888049168
   O      8.2965696935      6.5213144144      8.7757352159
   O      8.1278450387      1.3207749553      8.7668774475
   O      5.8335486583      3.2019020614      8.3911018344
   O      6.1137410786      8.1091295162      5.9378996613
   O      8.4671197812      6.7022746701     11.2062748158
   O      7.9552460155      1.5275949478     11.2287293825
   O      5.6639807711      3.0263983758      5.9666597727
   O      5.6045809997      5.3254612392      7.1514967461
   O      8.0182247949      9.4427540480     10.0468742363
   O      8.2682212747      3.7409006891      7.2321369546
   O      5.8794433210      0.7255188143      9.9568746669
   O      5.8666840775      5.9447008142      9.9554812069
   O      8.5123498573      4.4158645464     10.0225730984
   O      6.0755523873      0.2015656283      7.1216053633
   O      8.2047287207      8.9241247327      7.2088447974
  Ni      2.2602644412      7.5397454508      4.1800395962
  Ni      4.5964035161      6.9472123645      1.1361046169
  Mn      0.0541186005      2.4001402826      4.2334023508
  Ni      2.3905697887      1.7856915542      1.1562478996
  Ni      9.4135570211      9.7567576235      2.6508445106
  Ni      2.3263122643      4.6865364848      2.6623131457
  Ni      6.9394238022      7.5303470565      4.1718878120
  Mn      9.2880323220      6.9178286185      1.0858197893
  Mn      4.7782378658      2.4244375125      4.2349324206
  Ni      7.0904494649      1.7812297112      1.1513631990
  Ni      4.6799508509      9.7628370717      2.6631382623
  Ni      7.0300996122      4.6842117806      2.6520032451
   P      1.9764655628      8.7941466040      1.1892789928
   P      4.3001541846      5.7284573917      4.1343722074
   P      2.6712576858      0.5054620606      4.1339771864
   P      0.3337260855      3.6310405479      1.2154526333
   O      1.2519111447      8.1525897252      2.4736119339
   O      3.5538611370      6.3631083924      2.8501985194
   O      3.3846808383      1.1621406345      2.8503803848
   O      1.0881905329      2.9923139828      2.4755023044
   O      1.4137746574      7.9539511074      0.0154339755
   O      3.7478951754      6.5561067123      5.3197941026
   O      3.2113004906      1.3656558411      5.3049135041
   O      0.9081695066      2.8026311840      0.0440619979
   O      0.8638185738      5.0943406679      1.2234884592
   O      3.2862393148      9.2823741311      4.1292961742
   O      3.5166239248      3.5843379163      1.3041952696
   O      1.1341081212      0.5438172412      4.0334548227
   O      1.1114310998      5.7667250849      4.0211550768
   O      3.7532920196      4.2696873711      4.1113350498
   O      1.3749045194      0.0256145574      1.2012641453
   O      3.5152370686      8.7350024536      1.2785632995
   P      6.6406663624      8.7896335614      1.1780495906
   P      9.0199060473      5.6979818105      4.1087366067
   P      7.3879288733      0.4925239004      4.1260922063
   P      5.0538503052      3.6790188284      1.2064823569
   O      5.9215364048      8.1240684780      2.4609052555
   O      8.2702409072      6.3425484912      2.8478355546
   O      8.1015162524      1.1420090320      2.8389777861
   O      5.8072198720      3.0231361382      2.4632021730
   O      6.0874122923      7.9303635929      0.0100000000
   O      8.4407909948      6.5235087468      5.2783751545
   O      7.9289172292      1.3488290245      5.3008297212
   O      5.6376519848      2.8476324525      0.0387601113
   O      5.5782522134      5.1466953159      1.2235970847
   O      7.9918960086      9.2639881247      4.1189745750
   O      8.2418924884      3.5621347659      1.3042372932
   O      5.8531145347      0.5467528910      4.0289750056
   O      5.8403552912      5.7659348909      4.0275815455
   O      8.4860210710      4.2370986231      4.0946734371
   O      6.0492236010      0.0227997050      1.1937057019
   O      8.1783999343      8.7453588095      1.2809451361
   O      1.0121365048      3.3939968029     17.4379681814
   H      1.8457738133      2.8734372401     17.5964084948
