&CONTROL 
 calculation = 'scf' 
 restart_mode = 'from_scratch'
 nstep = 1 
 outdir= './OER' 
 pseudo_dir = "~/PSEUDO"
dipfield = .TRUE. 
 tefield = .TRUE. 
 wf_collect = .TRUE. 
 disk_io = 'none' 
 tprnfor = .true.
 / 

 &SYSTEM
ibrav = 0
    degauss = 0.01
    ecutrho = 500
    ecutwfc = 50
    nat = 158
    nspin = 2
    ntyp = 5
    occupations = 'smearing'
    smearing = 'gaussian'
    vdw_corr = 'DFT-D'
    starting_magnetization(1) = 1
    starting_magnetization(2) = 1
    starting_magnetization(3) = 1
    starting_magnetization(4) = 1
    edir = 3
    eamp = 0.0
    emaxpos = 0.75
/
&ELECTRONS
    electron_maxstep = 150
    mixing_beta = 0.1
    startingpot = 'atomic'
    startingwfc = 'atomic+random'
    scf_must_converge = .FALSE.
    mixing_mode = 'local-TF'
/
&IONS
    ion_dynamics = 'bfgs'
/
K_POINTS gamma
ATOMIC_SPECIES
  Ni   58.693   Ni.pbe-n-rrkjus_psl.1.0.0.UPF
  Mn   54.938   Mn.pbe-spn-rrkjus_psl.0.3.1.UPF
  P    30.973   P.pbe-n-rrkjus_psl.1.0.0.UPF
  O    15.999   O.pbe-rrkjus.UPF
  H    1.0079   H.pbe-rrkjus.UPF

CELL_PARAMETERS angstrom
9.3666399000  0.0000000000  0.0000000000
  0.0000000000  10.0759721600  0.0000000000
  0.0000000000  0.0000000000  31.9043898325

ATOMIC_POSITIONS {angstrom} 
  Mn      2.3576643414      7.8409218873     16.0068379343
  Ni      4.6330195083      7.2619305918     12.8564851642
  Ni      0.0145000459      2.7736226479     15.6890015328
  Ni      2.4479910552      2.2444665584     12.8120260408
  Ni      9.3525269341     10.0685545233     14.3830441163
  Ni      2.4096526318      5.0619145260     14.3556735961
  Ni      7.0521550473      7.8261031738     15.6917954745
  Ni      9.3066309575      7.2652796489     12.8511617721
  Ni      4.7064951019      2.7765920466     15.6848874481
  Ni      7.1364226150      2.2249808518     12.8016344407
  Ni      4.6740994702     10.0861679455     14.3359183270
  Ni      7.0855779478      5.0194327310     14.3403853506
   P      1.9684396886      9.1045196635     12.9232717823
   P      4.4084479778      6.0428459092     15.8817162068
   P      2.7016420535      1.0558744461     15.8516278034
   P      0.4274343498      4.0659812294     12.8397074551
   O      1.2505014778      8.4272601398     14.1817019083
   O      3.6228546051      6.7274749017     14.6063564662
   O      3.4376069061      1.6277930896     14.4837309024
   O      1.1616848831      3.4062493030     14.1158736320
   O      1.3798561357      8.2781839069     11.7483848914
   O      3.8842083391      6.8755658131     17.0443322189
   O      3.2739738971      1.9609231596     16.9295207803
   O      0.9859177160      3.2448773949     11.6519888222
   O      0.9826702426      5.5220741874     12.8860114488
   O      3.2536973030      9.6558361688     15.7899552230
   O      3.5687232001      4.0105739631     12.9500322092
   O      1.1603159027      1.0856312605     15.7131192377
   O      1.2227575673      6.0901491376     15.7556105467
   O      3.8707419701      4.5767009440     15.7945857099
   O      1.4280664035      0.4830487738     12.9250351939
   O      3.5065686842      9.0234987726     12.9725593763
   P      6.6537261499      9.0993176370     12.8440717740
   P      9.0380659338      6.0326383031     15.8552723046
   P      7.3733110781      1.0292302592     15.8487345573
   P      5.1049833222      4.0605607023     12.8344823919
   O      5.9194809689      8.4322595085     14.1188712379
   O      8.3284234847      6.6254523952     14.5012066222
   O      8.1135994109      1.5927159934     14.4835285348
   O      5.8406539166      3.3823736037     14.1013023201
   O      6.0806751134      8.2721836310     11.6662214677
   O      8.4622317716      6.9306919785     16.9495894697
   O      7.9415504328      1.9458262853     16.9196525561
   O      5.6765914417      3.2427327763     11.6490183483
   O      5.6534917727      5.5175998077     12.8961541448
   O      7.8881824639      9.6230250674     15.8461367182
   O      8.2582333639      3.9962822390     12.9526105436
   O      5.8279204697      1.0637359849     15.7106495398
   O      5.9457329574      6.0875253377     15.7085561277
   O      8.5240564096      4.5614097834     15.8301193824
   O      6.1000363375      0.4762428459     12.8736429388
   O      8.1872337411      9.0270794406     12.9710491401
  Mn      2.2524368768      7.7240452976     10.0236323639
  Ni      4.6534647676      7.1202901005      6.9822425005
  Ni      0.0619603813      2.6337384440      9.9556760802
  Ni      2.4219525798      2.0896438093      6.9510492594
  Ni      9.3547912696      9.9019397956      8.4440186395
  Ni      2.3579554440      4.8758940102      8.4680010131
  Ni      6.9796879716      7.6924726712      9.9737552430
  Ni      9.3096730862      7.1316559318      6.9896902714
  Ni      4.7877892837      2.6218843324      9.9455480718
  Ni      7.1245715506      2.0553708916      6.9486854554
  Ni      4.7058610954      9.8941863400      8.4294293279
  Ni      7.0530582306      4.8640817481      8.4531033399
   P      1.9603854589      8.9977651159      7.0482873394
   P      4.3608513788      5.8397436861      9.9242203128
   P      2.7263470654      0.8452909389      9.9041174682
   P      0.3711210654      3.8997822466      6.9978917740
   O      1.2123972175      8.3253929520      8.2981876587
   O      3.6291095674      6.4909496873      8.6481394006
   O      3.4680363025      1.4891875754      8.6265731291
   O      1.1093829690      3.2390247331      8.2722091938
   O      1.3596349964      8.1732983076      5.8844425164
   O      3.7923299398      6.6696755998     11.1017409419
   O      3.3003412998      1.6632003659     11.0846454462
   O      0.9531584297      3.0774745500      5.8198181531
   O      0.9136186619      5.3618137311      7.0362164392
   O      3.2629172638      9.5446340885      9.9282608343
   O      3.5446225228      3.8405128423      7.0821078828
   O      1.1879123926      0.8833017255      9.8135924863
   O      1.1354873087      5.9002852466      9.8415499985
   O      3.7965946052      4.3877760984      9.8998794461
   O      1.4392974591      0.3016087220      7.0217319728
   O      3.4959570534      8.9046787901      7.1310821586
   P      6.6688818178      8.9648664905      7.0220839690
   P      9.0062189322      5.8433568154      9.9351828548
   P      7.4256001189      0.7916169815      9.9078014654
   P      5.0827169838      3.8822476802      6.9867459032
   O      5.9261601580      8.3047134747      8.2957315165
   O      8.2821359139      6.5175804600      8.6592372243
   O      8.1641303211      1.4544857869      8.6326835892
   O      5.8185662143      3.2162709709      8.2602842260
   O      6.0955409502      8.1372002858      5.8430941221
   O      8.4431397248      6.6873528892     11.1081253718
   O      8.0075057281      1.6138667826     11.0849006204
   O      5.6616365268      3.0477094258      5.8162644606
   O      5.6428606763      5.3373221456      7.0164591929
   O      7.9606510584      9.4880010964      9.9237323917
   O      8.2411397074      3.8224416068      7.0850651702
   O      5.8887324813      0.8521033415      9.8092820433
   O      5.8962744512      5.9036412465      9.8325045456
   O      8.4527730620      4.3886428208      9.9038173381
   O      6.1330998669      0.2679537444      6.9999548578
   O      8.2056512655      8.9055106833      7.1237153000
  Mn      2.2524368768      7.6070420221      4.2173679033
  Ni      4.6534647676      7.0032868250      1.1759780399
  Ni      0.0619603813      2.5167351685      4.1494116195
  Ni      2.4219525798      1.9726405338      1.1447847987
  Ni      9.3547912696      9.7849365202      2.6377541788
  Ni      2.3579554440      4.7588907347      2.6617365524
  Ni      6.9796879716      7.5754693957      4.1674907823
  Ni      9.3096730862      7.0146526563      1.1834258107
  Ni      4.7877892837      2.5048810569      4.1392836112
  Ni      7.1245715506      1.9383676161      1.1424209947
  Ni      4.7058610954      9.7771830645      2.6231648672
  Ni      7.0530582306      4.7470784726      2.6468388792
   P      1.9603854589      8.8807618404      1.2420228787
   P      4.3608513788      5.7227404107      4.1179558521
   P      2.7263470654      0.7282876635      4.0978530075
   P      0.3711210654      3.7827789711      1.1916273134
   O      1.2123972175      8.2083896765      2.4919231980
   O      3.6291095674      6.3739464118      2.8418749399
   O      3.4680363025      1.3721842999      2.8203086685
   O      1.1093829690      3.1220214576      2.4659447331
   O      1.3596349964      8.0562950321      0.0781780558
   O      3.7923299398      6.5526723243      5.2954764813
   O      3.3003412998      1.5461970904      5.2783809855
   O      0.9531584297      2.9604712745      0.0135536924
   O      0.9136186619      5.2448104556      1.2299519786
   O      3.2629172638      9.4276308131      4.1219963736
   O      3.5446225228      3.7235095668      1.2758434221
   O      1.1879123926      0.7662984500      4.0073280256
   O      1.1354873087      5.7832819711      4.0352855378
   O      3.7965946052      4.2707728229      4.0936149854
   O      1.4392974591      0.1846054465      1.2154675122
   O      3.4959570534      8.7876755146      1.3248176979
   P      6.6688818178      8.8478632150      1.2158195084
   P      9.0062189322      5.7263535399      4.1289183942
   P      7.4256001189      0.6746137060      4.1015370047
   P      5.0827169838      3.7652444047      1.1804814425
   O      5.9261601580      8.1877101992      2.4894670559
   O      8.2821359139      6.4005771845      2.8529727636
   O      8.1641303211      1.3374825114      2.8264191286
   O      5.8185662143      3.0992676954      2.4540197653
   O      6.0955409502      8.0201970103      0.0368296614
   O      8.4431397248      6.5703496137      5.3018609112
   O      8.0075057281      1.4968635071      5.2786361598
   O      5.6616365268      2.9307061503      0.0100000000
   O      5.6428606763      5.2203188701      1.2101947322
   O      7.9606510584      9.3709978209      4.1174679311
   O      8.2411397074      3.7054383313      1.2788007096
   O      5.8887324813      0.7351000660      4.0030175826
   O      5.8962744512      5.7866379710      4.0262400850
   O      8.4527730620      4.2716395453      4.0975528774
   O      6.1330998669      0.1509504689      1.1936903972
   O      8.2056512655      8.7885074078      1.3174508394
   O     10.7028018767      8.5061478995     17.2766766954
   H      9.8299624402      8.0380259575     17.3965010409
