&CONTROL 
 calculation = 'scf' 
 restart_mode = 'from_scratch'
 nstep = 1 
 outdir= './OER' 
 pseudo_dir = "~/PSEUDO"
dipfield = .TRUE. 
 tefield = .TRUE. 
 wf_collect = .TRUE. 
 disk_io = 'none' 
 tprnfor = .true.
 / 

 &SYSTEM
ibrav = 0
    degauss = 0.01
    ecutrho = 500
    ecutwfc = 50
    nat = 158
    nspin = 2
    ntyp = 5
    occupations = 'smearing'
    smearing = 'gaussian'
    vdw_corr = 'DFT-D'
    starting_magnetization(1) = 1
    starting_magnetization(2) = 1
    starting_magnetization(3) = 1
    starting_magnetization(4) = 1
    edir = 3
    eamp = 0.0
    emaxpos = 0.75
/

&ELECTRONS
    electron_maxstep = 150
    mixing_beta = 0.1
    startingpot = 'atomic'
    startingwfc = 'atomic+random'
    scf_must_converge = .FALSE.
    mixing_mode = 'local-TF'
/

&IONS
    ion_dynamics = 'bfgs'
/

K_POINTS gamma

ATOMIC_SPECIES
  Ni   58.693   Ni.pbe-n-rrkjus_psl.1.0.0.UPF
  Mn   54.938   Mn.pbe-spn-rrkjus_psl.0.3.1.UPF
  P    30.973   P.pbe-n-rrkjus_psl.1.0.0.UPF
  O    15.999   O.pbe-rrkjus.UPF
  H    1.0079   H.pbe-rrkjus.UPF

CELL_PARAMETERS angstrom
9.3666399000  0.0000000000  0.0000000000
  0.0000000000  10.0759721600  0.0000000000
  0.0000000000  0.0000000000  31.9043898325

ATOMIC_POSITIONS {angstrom} 
  Mn      2.2524368768      7.8410485731      1.0944930079
  Ni      4.6534647676      7.2372933759      4.1358828713
  Ni      0.0619603813      2.7507417195      1.1624492917
  Ni      2.4219525798      2.2066470848      4.1670761125
  Ni      9.3547912696     10.0189430711      2.6741067324
  Ni      2.3579554440      4.9928972857      2.6501243588
  Ni      6.9796879716      7.8094759467      1.1443701289
  Ni      9.3096730862      7.2486592073      4.1284351004
  Ni      4.7877892837      2.7388876079      1.1725773000
  Ni      7.1245715506      2.1723741671      4.1694399165
  Ni      4.7058610954     10.0111896155      2.6886960440
  Ni      7.0530582306      4.9810850236      2.6650220320
   P      1.9603854589      9.1147683914      4.0698380325
   P      4.3608513788      5.9567469616      1.1939050591
   P      2.7263470654      0.9622942144      1.2140079036
   P      0.3711210654      4.0167855221      4.1202335978
   O      1.2123972175      8.4423962275      2.8199377132
   O      3.6291095674      6.6079529628      2.4699859713
   O      3.4680363025      1.6061908509      2.4915522427
   O      1.1093829690      3.3560280086      2.8459161781
   O      1.3596349964      8.2903015831      5.2336828554
   O      3.7923299398      6.7866788753      0.0163844299
   O      3.3003412998      1.7802036414      0.0334799257
   O      0.9531584297      3.1944778255      5.2983072187
   O      0.9136186619      5.4788170066      4.0819089326
   O      3.2629172638      9.6616373640      1.1898645376
   O      3.5446225228      3.9575161178      4.0360174891
   O      1.1879123926      1.0003050009      1.3045328856
   O      1.1354873087      6.0172885221      1.2765753734
   O      3.7965946052      4.5047793739      1.2182459258
   O      1.4392974591      0.4186119975      4.0963933990
   O      3.4959570534      9.0216820656      3.9870432133
   P      6.6688818178      9.0818697660      4.0960414028
   P      9.0062189322      5.9603600909      1.1829425170
   P      7.4256001189      0.9086202570      1.2103239064
   P      5.0827169838      3.9992509557      4.1313794687
   O      5.9261601580      8.4217167502      2.8223938553
   O      8.2821359139      6.6345837355      2.4588881476
   O      8.1641303211      1.5714890624      2.4854417826
   O      5.8185662143      3.3332742464      2.8578411459
   O      6.0955409502      8.2542035613      5.2750312498
   O      8.4431397248      6.8043561646      0.0100000000
   O      8.0075057281      1.7308700581      0.0332247514
   O      5.6616365268      3.1647127013      5.3018609112
   O      5.6428606763      5.4543254211      4.1016661790
   O      7.9606510584      9.6050043719      1.1943929801
   O      8.2411397074      3.9394448823      4.0330602016
   O      5.8887324813      0.9691066170      1.3088433286
   O      5.8962744512      6.0206445220      1.2856208262
   O      8.4527730620      4.5056460963      1.2143080338
   O      6.1330998669      0.3849570199      4.1181705140
   O      8.2056512655      9.0225139588      3.9944100718
  Mn      2.2524368768      7.7240452976      6.9007574686
  Ni      4.6534647676      7.1202901005      9.9421473320
  Ni      0.0619603813      2.6337384440      6.9687137523
  Ni      2.4219525798      2.0896438093      9.9733405731
  Ni      9.3547912696      9.9019397956      8.4803711930
  Ni      2.3579554440      4.8758940102      8.4563888194
  Ni      6.9796879716      7.6924726712      6.9506345895
  Ni      9.3096730862      7.1316559318      9.9346995611
  Ni      4.7877892837      2.6218843324      6.9788417607
  Ni      7.1245715506      2.0553708916      9.9757043771
  Ni      4.7058610954      9.8941863400      8.4949605046
  Ni      7.0530582306      4.8640817481      8.4712864926
   P      1.9603854589      8.9977651159      9.8761024931
   P      4.3608513788      5.8397436861      7.0001695197
   P      2.7263470654      0.8452909389      7.0202723643
   P      0.3711210654      3.8997822466      9.9264980585
   O      1.2123972175      8.3253929520      8.6262021738
   O      3.6291095674      6.4909496873      8.2762504319
   O      3.4680363025      1.4891875754      8.2978167034
   O      1.1093829690      3.2390247331      8.6521806387
   O      1.3596349964      8.1732983076     11.0399473161
   O      3.7923299398      6.6696755998      5.8226488906
   O      3.3003412998      1.6632003659      5.8397443863
   O      0.9531584297      3.0774745500     11.1045716794
   O      0.9136186619      5.3618137311      9.8881733933
   O      3.2629172638      9.5446340885      6.9961289982
   O      3.5446225228      3.8405128423      9.8422819497
   O      1.1879123926      0.8833017255      7.1107973462
   O      1.1354873087      5.9002852466      7.0828398340
   O      3.7965946052      4.3877760984      7.0245103864
   O      1.4392974591      0.3016087220      9.9026578597
   O      3.4959570534      8.9046787901      9.7933076739
   P      6.6688818178      8.9648664905      9.9023058635
   P      9.0062189322      5.8433568154      6.9892069777
   P      7.4256001189      0.7916169815      7.0165883671
   P      5.0827169838      3.8822476802      9.9376439293
   O      5.9261601580      8.3047134747      8.6286583160
   O      8.2821359139      6.5175804600      8.2651526082
   O      8.1641303211      1.4544857869      8.2917062433
   O      5.8185662143      3.2162709709      8.6641056065
   O      6.0955409502      8.1372002858     11.0812957104
   O      8.4431397248      6.6873528892      5.8162644607
   O      8.0075057281      1.6138667826      5.8394892121
   O      5.6616365268      3.0477094258     11.1081253719
   O      5.6428606763      5.3373221456      9.9079306396
   O      7.9606510584      9.4880010964      7.0006574408
   O      8.2411397074      3.8224416068      9.8393246623
   O      5.8887324813      0.8521033415      7.1151077892
   O      5.8962744512      5.9036412465      7.0918852869
   O      8.4527730620      4.3886428208      7.0205724944
   O      6.1330998669      0.2679537444      9.9244349747
   O      8.2056512655      8.9055106833      9.8006745325
  Mn      2.1927753245      7.5946564361     12.7978759243
  Ni      4.7065643090      6.9913393416     15.6957395085
  Ni      0.0856033581      2.5034425148     12.8296803487
  Ni      2.3370310089      1.9466015013     15.6940657547
  Ni      9.3967088811      9.7565225703     14.3909266859
  Ni      2.3278554503      4.7285909228     14.3282072843
  Ni      6.9594304801      7.5440573094     12.8191857542
  Ni      9.2968596935      6.9249607329     16.0077909259
  Ni      4.7892419334      2.5012797675     12.8310723984
  Ni      7.0202490779      1.9682609553     15.6886271515
  Ni      4.7282342518      9.7786494975     14.3538888271
  Ni      7.0217966924      4.7557600267     14.3780919034
   P      2.0169930941      8.7376673325     15.8660885250
   P      4.3298791497      5.7020678299     12.8397848163
   P      2.7372864657      0.6895775779     12.8478070115
   P      0.3579090133      3.6907319946     15.8387776999
   O      1.2853557218      8.1498444364     14.5374539410
   O      3.6039962731      6.3498029794     14.1173413394
   O      3.4754361857      1.3314164417     14.1247031032
   O      1.0988353102      3.1067503332     14.4695966141
   O      1.4673812844      7.8480187387     16.9737352987
   O      3.7643142999      6.5458782304     11.6666855033
   O      3.3157231567      1.4993632111     11.6662696137
   O      0.9146816950      2.7592911147     16.9077146994
   O      0.9230144702      5.1469678433     15.7868733187
   O      3.2824948488      9.2995400684     12.8756243779
   O      3.4832050551      3.6627663993     15.7001522659
   O      1.2041004847      0.7253099579     12.9578684528
   O      1.1509360512      5.8066825776     12.9366572974
   O      3.7657913568      4.2510199142     12.8510478916
   O      1.4981513106      0.1441025389     15.8392712620
   O      3.5635890966      8.7026967835     15.7170584486
   P      6.6819319446      8.7865049669     15.8630163461
   P      8.9712779089      5.7345694618     12.8571475382
   P      7.4369675988      0.6601978905     12.8512851956
   P      5.0264861568      3.7136703641     15.8518190497
   O      5.9728272424      8.1772073092     14.5049103288
   O      8.2728711431      6.4186622645     14.1252224451
   O      8.1629592443      1.3250523978     14.1274645037
   O      5.7722907854      3.1461028688     14.4884917368
   O      6.0830542985      7.9027154451     16.9561393928
   O      8.4168834185      6.5451599772     11.6554483554
   O      8.0129455517      1.4822793681     11.6704183920
   O      5.5968555987      2.8005483430     16.9251665050
   O      5.5444343133      5.1934586250     15.8434168925
   O      7.9921476244      9.2840740065     12.8901491262
   O      8.1833453198      3.6422943303     15.6817607727
   O      5.9001740797      0.7299942704     12.9551183821
   O      5.8649996723      5.7735244482     12.9563892393
   O      8.4418767358      4.2744001355     12.8969059147
   O      6.1380832807      0.1804905645     15.8177222549
   O      8.2249528810      8.7566598723     15.7719958220
   O      8.2082599301      6.1248496605     17.2211670126
   H      7.4102574224      6.6724137031     17.4470866617
