&CONTROL
    calculation   = "relax"
    outdir        = "./tmp"
    nstep         = 1000
    prefix        = "100"
    pseudo_dir    = "/home/dasyaifullah/pseudo"
    dipfield      = .TRUE.
    tefield       = .TRUE.
    restart_mode  = "from_scratch"
    max_seconds   = 86000
/

&SYSTEM
    degauss                   = 0.01
    ecutrho                   = 500
    ecutwfc                   = 50
    ibrav                     = 0
    nat                       = 158
    ntyp                      = 4
    occupations               = "smearing"
    smearing                  = "gaussian"
    nspin                     = 2
    starting_magnetization(1) = 1
    starting_magnetization(2) = 1
    starting_magnetization(3) = 1
    edir                      = 3
    vdw_corr                  = 'DFT-D'
    eamp                      = 0.0
    emaxpos                   = 0.75
/

&ELECTRONS
    electron_maxstep = 150
    mixing_beta      = 0.3
    startingpot      = "atomic"
    startingwfc      = "atomic+random"
    scf_must_converge= .FALSE.
/

&IONS
    ion_dynamics = "bfgs"
/

K_POINTS {gamma}

ATOMIC_SPECIES
Ni   58.69340  Ni.pbe-n-rrkjus_psl.1.0.0.UPF
P    30.97376  P.pbe-n-rrkjus_psl.1.0.0.UPF
O    15.99940  O.pbe-rrkjus.UPF
H     1.00794  H.pbe-rrkjus.UPF

CELL_PARAMETERS {angstrom}
     9.3786776616199994    0.0000000000000000    0.0000000000000000
     0.0000000000000000   10.1149396091007802    0.0000000000000000
     0.0000000000000000    0.0000000000000000   31.8541633382378642

ATOMIC_POSITIONS (angstrom)
Ni            2.2752103280        7.7744991150        1.1559810360    0   0   0
Ni            4.6198797430        7.2051492680        4.1240823220    0   0   0
Ni            0.0694590880        2.7170293120        1.1559810370    0   0   0
Ni            2.4141285040        2.1476794650        4.1240823230    0   0   0
Ni            0.0000000000       10.0185590960        2.6400316800    0   0   0
Ni            2.3446694160        4.9610892900        2.6400316790    0   0   0
P             1.9685982240        9.0252355940        4.1008002580    0   0   0
P             4.3132676400        5.9544127890        1.1792631000    0   0   0
P             2.7207406070        0.8969429860        1.1792631010    0   0   0
P             0.3760711920        3.9677657910        4.1008002590    0   0   0
O             1.2316913870        8.3674752860        2.8244644690    0   0   0
O             3.5763608030        6.6121730970        2.4555988890    0   0   0
O             3.4576474440        1.5547032940        2.4555988900    0   0   0
O             1.1129780280        3.3100054830        2.8244644700    0   0   0
O             1.3794229920        8.1964259050        5.2700633580    0   0   0
O             3.7240924070        6.7832224780        0.0100000000    0   0   0
O             3.3099158400        1.7257526750        0.0100000010    0   0   0
O             0.9652464240        3.1389561020        5.2700633590    0   0   0
O             0.9220154060        5.4266005210        4.0688980370    0   0   0
O             3.2666848220        9.5530478630        1.2111653210    0   0   0
O             3.5297276120        3.9094173680        4.0089148720    0   0   0
O             1.1850581960        0.9552914090        1.2711484880    0   0   0
O             1.1596112200        6.0127612130        1.2711484870    0   0   0
O             3.7673234250        4.4955780590        1.2111653220    0   0   0
O             1.4226540100        0.3691307180        4.0688980370    0   0   0
O             3.5042806360        8.9668871710        4.0089148710    0   0   0
Ni            2.2752103280        7.5817380910        6.9530310260    0   0   0
Ni            4.6198797430        7.0123882440        9.9211323120    0   0   0
Ni            0.0694590880        2.5242682880        6.9530310260    0   0   0
Ni            2.4141285040        1.9549184400        9.9211323130    0   0   0
Ni            0.0000000000        9.8257980710        8.4370816700    0   0   0
Ni            2.3446694160        4.7683282660        8.4370816690    0   0   0
P             1.9685982240        8.8324745700        9.8978502480    0   0   0
P             4.3132676400        5.7616517650        6.9763130900    0   0   0
P             2.7207406070        0.7041819610        6.9763130910    0   0   0
P             0.3760711920        3.7750047670        9.8978502480    0   0   0
O             1.2316913870        8.1747142620        8.6215144590    0   0   0
O             3.5763608030        6.4194120730        8.2526488790    0   0   0
O             3.4576474440        1.3619422690        8.2526488790    0   0   0
O             1.1129780280        3.1172444590        8.6215144600    0   0   0
O             1.3794229920        8.0036648810       11.0671133480    0   0   0
O             3.7240924070        6.5904614540        5.8070499900    0   0   0
O             3.3099158400        1.5329916500        5.8070499910    0   0   0
O             0.9652464240        2.9461950770       11.0671133490    0   0   0
O             0.9220154060        5.2338394960        9.8659480260    0   0   0
O             3.2666848220        9.3602868380        7.0082153110    0   0   0
O             3.5297276120        3.7166563430        9.8059648620    0   0   0
O             1.1850581960        0.7625303850        7.0681984770    0   0   0
O             1.1596112200        5.8200001880        7.0681984770    0   0   0
O             3.7673234250        4.3028170350        7.0082153120    0   0   0
O             1.4226540100        0.1763696930        9.8659480270    0   0   0
O             3.5042806360        8.7741261460        9.8059648610    0   0   0
Ni            2.2716984098        7.4036197656       12.7679267518
Ni            4.6470888315        6.7991658697       15.7692449515
Ni            0.0715303657        2.3443116601       12.7641604685
Ni            2.3208826223        1.8110268190       15.6134941813
Ni            0.0194715797        9.6475154012       14.2760861614
Ni            2.3030142375        4.5949613729       14.2689404516
P             2.0003624828        8.6562399032       15.7748095026
P             4.2901533284        5.5740322621       12.8000554323
P             2.7380934123        0.5111894133       12.7912415506
P             0.3229854436        3.5614427823       15.7862103701
O             1.2707831120        8.0450380257       14.4341213275
O             3.5562218156        6.2320070321       14.0752030245
O             3.4712776711        1.1753582279       14.0683683447
O             1.0679083023        2.9925009632       14.4266703448
O             1.4138301156        7.7526823964       16.8708694543
O             3.7175204904        6.4045433865       11.6212126621
O             3.3131865260        1.3410878510       11.6151021707
O             0.9184016465        2.6648368850       16.8637976087
O             0.8427526576        5.0472238142       15.7839950300
O             3.2864808645        9.1713627605       12.8304928808
O             3.4855730093        3.5281902848       15.6706333199
O             1.2019305297        0.5866597276       12.9048571721
O             1.1346983885        5.6458999529       12.9006527160
O             3.7391796780        4.1154164323       12.8299920482
O             1.4590786986       10.1219880723       15.7621475018
O             3.5402160554        8.6068308297       15.6714244294
Ni            6.9645491580        7.7744991150        1.1559810360    0   0   0
Ni            9.3092185740        7.2051492680        4.1240823220    0   0   0
Ni            4.7587979190        2.7170293120        1.1559810370    0   0   0
Ni            7.1034673350        2.1476794650        4.1240823230    0   0   0
Ni            4.6893388310       10.0185590960        2.6400316800    0   0   0
Ni            7.0340082470        4.9610892900        2.6400316790    0   0   0
P             6.6579370550        9.0252355940        4.1008002580    0   0   0
P             9.0026064710        5.9544127890        1.1792631000    0   0   0
P             7.4100794380        0.8969429860        1.1792631010    0   0   0
P             5.0654100220        3.9677657910        4.1008002590    0   0   0
O             5.9210302180        8.3674752860        2.8244644690    0   0   0
O             8.2656996340        6.6121730970        2.4555988890    0   0   0
O             8.1469862750        1.5547032940        2.4555988900    0   0   0
O             5.8023168590        3.3100054830        2.8244644700    0   0   0
O             6.0687618220        8.1964259050        5.2700633580    0   0   0
O             8.4134312380        6.7832224780        0.0100000000    0   0   0
O             7.9992546710        1.7257526750        0.0100000010    0   0   0
O             5.6545852550        3.1389561020        5.2700633590    0   0   0
O             5.6113542370        5.4266005210        4.0688980370    0   0   0
O             7.9560236530        9.5530478630        1.2111653210    0   0   0
O             8.2190664420        3.9094173680        4.0089148720    0   0   0
O             5.8743970270        0.9552914090        1.2711484880    0   0   0
O             5.8489500510        6.0127612130        1.2711484870    0   0   0
O             8.4566622560        4.4955780590        1.2111653220    0   0   0
O             6.1119928400        0.3691307180        4.0688980370    0   0   0
O             8.1936194660        8.9668871710        4.0089148710    0   0   0
Ni            6.9645491580        7.5817380910        6.9530310260    0   0   0
Ni            9.3092185740        7.0123882440        9.9211323120    0   0   0
Ni            4.7587979190        2.5242682880        6.9530310260    0   0   0
Ni            7.1034673350        1.9549184400        9.9211323130    0   0   0
Ni            4.6893388310        9.8257980710        8.4370816700    0   0   0
Ni            7.0340082470        4.7683282660        8.4370816690    0   0   0
P             6.6579370550        8.8324745700        9.8978502480    0   0   0
P             9.0026064710        5.7616517650        6.9763130900    0   0   0
P             7.4100794380        0.7041819610        6.9763130910    0   0   0
P             5.0654100220        3.7750047670        9.8978502480    0   0   0
O             5.9210302180        8.1747142620        8.6215144590    0   0   0
O             8.2656996340        6.4194120730        8.2526488790    0   0   0
O             8.1469862750        1.3619422690        8.2526488790    0   0   0
O             5.8023168590        3.1172444590        8.6215144600    0   0   0
O             6.0687618220        8.0036648810       11.0671133480    0   0   0
O             8.4134312380        6.5904614540        5.8070499900    0   0   0
O             7.9992546710        1.5329916500        5.8070499910    0   0   0
O             5.6545852550        2.9461950770       11.0671133490    0   0   0
O             5.6113542370        5.2338394960        9.8659480260    0   0   0
O             7.9560236530        9.3602868380        7.0082153110    0   0   0
O             8.2190664420        3.7166563430        9.8059648620    0   0   0
O             5.8743970270        0.7625303850        7.0681984770    0   0   0
O             5.8489500510        5.8200001880        7.0681984770    0   0   0
O             8.4566622560        4.3028170350        7.0082153120    0   0   0
O             6.1119928400        0.1763696930        9.8659480270    0   0   0
O             8.1936194660        8.7741261460        9.8059648610    0   0   0
Ni            6.9459810648        7.4027077689       12.7734240663
Ni           -0.0043818295        6.8613320136       15.6029280461
Ni            4.7569752877        2.3374682755       12.7585488592
Ni            7.0109818201        1.7671214551       15.6111536076
Ni            4.7262823724        9.6261270196       14.2941985908
Ni            6.9923976914        4.5785342425       14.2691660184
P             6.6943965764        8.5859571644       15.7796371088
P             8.9774435418        5.5679986129       12.7765137454
P             7.4225252145        0.5039604651       12.7792209178
P             5.0456505639        3.5314285916       15.7725728380
O             5.9482743258        8.0026763586       14.4436351191
O             8.2429127739        6.2294311854       14.0543520556
O             8.1584732411        1.1710675301       14.0561022725
O             5.7597554861        2.9476079485       14.4095134986
O             6.1573745942        7.6966459069       16.8881797263
O             8.4007237352        6.3954894434       11.6033568289
O             8.0044596922        1.3372349360       11.6092431446
O             5.5948857225        2.6037891051       16.8464259182
O             5.5894050213        4.9963211688       15.7411442406
O             7.9748368158        9.1650133194       12.8193647203
O             8.1603663917        3.5036189890       15.6480189394
O             5.8875840664        0.5700596740       12.8939841727
O             5.8269350797        5.6333477611       12.8979905209
O             8.4324346253        4.1115186302       12.8169690425
O             6.1787352073       10.0727143031       15.7572922772
O             8.2471811301        8.5637920358       15.6343789397
O             3.4188696025        6.0537142194       17.2131289921
H             2.5920195097        6.6184825799       17.2763100468


