&control
    calculation = 'relax'
    pseudo_dir = '~/PSEUDO'
    outdir = './tmp'
    nstep = 1000
    tefield = .true.
    dipfield = .true.
/

&SYSTEM
    ibrav = 0
    degauss = 0.01
    ecutrho = 500
    ecutwfc = 50
    nat = 158
    nspin = 2
    ntyp = 5
    occupations = 'smearing'
    smearing = 'gaussian'
    vdw_corr = 'DFT-D'
    starting_magnetization(1) = 1
    starting_magnetization(2) = 1
    starting_magnetization(3) = 1
    starting_magnetization(4) = 1
    edir = 3
    eamp = 0.0
    emaxpos = 0.75
/

&ELECTRONS
    electron_maxstep = 150
    mixing_beta = 0.1
    startingpot = 'atomic'
    startingwfc = 'atomic+random'
    scf_must_converge = .FALSE.
    mixing_mode = 'local-TF'
/

&IONS
    ion_dynamics = 'bfgs'
/

K_POINTS gamma

ATOMIC_SPECIES
  Ni   58.693   Ni.pbe-n-rrkjus_psl.1.0.0.UPF
  Mn   54.938   Mn.pbe-spn-rrkjus_psl.0.3.1.UPF
  P    30.973   P.pbe-n-rrkjus_psl.1.0.0.UPF
  O    15.999   O.pbe-rrkjus.UPF
  H    1.0079   H.pbe-rrkjus.UPF

CELL_PARAMETERS angstrom
9.4474829294  0.0000000000  0.0000000000
  0.0305814238  10.2221506046  0.0000000000
  0.0000000000  0.0000000000  32.1655934253

ATOMIC_POSITIONS angstrom
Ni               2.3129220139        7.8972772973        1.1497545064    0   0   0
Ni               4.6490610887        7.3047442111        4.1936894858    0   0   0
Mn               0.1067761731        2.7576721292        1.0963917518    0   0   0
Ni               2.4432273613        2.1432234008        4.1735462030    0   0   0
Ni               9.4662145937       10.1142894701        2.6789495920    0   0   0
Ni               2.3789698370        5.0440683314        2.6674809569    0   0   0
Ni               6.9920813749        7.8878789031        1.1579062906    0   0   0
Mn               9.3406898946        7.2753604651        4.2439743133    0   0   0
Mn               4.8308954384        2.7819693590        1.0948616820    0   0   0
Ni               7.1431070376        2.1387615578        4.1784309036    0   0   0
Ni               4.7326084235       10.1203689183        2.6666558403    0   0   0
Ni               7.0827571848        5.0417436272        2.6777908576    0   0   0
P                2.0291231354        9.1516784506        4.1405151098    0   0   0
P                4.3528117572        6.0859892383        1.1954218952    0   0   0
P                2.7239152584        0.8629939071        1.1958169163    0   0   0
P                0.3863836581        3.9885723945        4.1143414694    0   0   0
O                1.3045687173        8.5101215718        2.8561821687    0   0   0
O                3.6065187097        6.7206402390        2.4795955832    0   0   0
O                3.4373384109        1.5196724811        2.4794137179    0   0   0
O                1.1408481055        3.3498458294        2.8542917983    0   0   0
O                1.4664322300        8.3114829540        5.3143601271    0   0   0
O                3.8005527481        6.9136385589        0.0100000000    0   0   0
O                3.2639580632        1.7231876877        0.0248805985    0   0   0
O                0.9608270792        3.1601630306        5.2857321047    0   0   0
O                0.9164761464        5.4518725145        4.1063056435    0   0   0
O                3.3388968874        9.6399059777        1.2004979284    0   0   0
O                3.5692814975        3.9418697628        4.0255988330    0   0   0
O                1.1867656938        0.9013490877        1.2963392800    0   0   0
O                1.1640886725        6.1242569315        1.3086390258    0   0   0
O                3.8059495922        4.6272192177        1.2184590528    0   0   0
O                1.4275620920        0.3831464040        4.1285299573    0   0   0
O                3.5678946412        9.0925343002        4.0512308031    0   0   0
P                6.6933239351        9.1471654079        4.1517445120    0   0   0
P                9.0725636199        6.0555136571        1.2210574959    0   0   0
P                7.4405864459        0.8500557470        1.2037018964    0   0   0
P                5.1065078778        4.0365506749        4.1233117458    0   0   0
O                5.9741939775        8.4816003245        2.8688888472    0   0   0
O                8.3228984798        6.7000803377        2.4819585481    0   0   0
O                8.1541738250        1.4995408786        2.4908163165    0   0   0
O                5.8598774446        3.3806679847        2.8665919296    0   0   0
O                6.1400698649        8.2878954395        5.3197941026    0   0   0
O                8.4934485675        6.8810405934        0.0514189482    0   0   0
O                7.9815748019        1.7063608711        0.0289643815    0   0   0
O                5.6903095574        3.2051642990        5.2910339913    0   0   0
O                5.6309097860        5.5042271625        4.1061970179    0   0   0
O                8.0445535812        9.6215199712        1.2108195277    0   0   0
O                8.2945500610        3.9196666124        4.0255568094    0   0   0
O                5.9057721073        0.9042847376        1.3008190970    0   0   0
O                5.8930128638        6.1234667375        1.3022125571    0   0   0
O                8.5386786436        4.5946304697        1.2351206656    0   0   0
O                6.1018811736        0.3803315516        4.1360884007    0   0   0
O                8.2310575070        9.1028906560        4.0488489665    0   0   0
Ni               2.2865932276        7.7185113740        7.0776541678    0   0   0
Ni               4.6227323024        7.1259782878       10.1215891471    0   0   0
Mn               0.0804473868        2.5789062059        7.0242914132    0   0   0
Ni               2.4168985750        1.9644574775       10.1014458644    0   0   0
Ni               9.4398858074        9.9355235468        8.6068492533    0   0   0
Ni               2.3526410507        4.8653024081        8.5953806183    0   0   0
Ni               6.9657525885        7.7091129798        7.0858059520    0   0   0
Mn               9.3143611083        7.0965945418       10.1718739746    0   0   0
Mn               4.8045666521        2.6032034357        7.0227613433    0   0   0
Ni               7.1167782512        1.9599956345       10.1063305650    0   0   0
Ni               4.7062796372        9.9416029950        8.5945555017    0   0   0
Ni               7.0564283985        4.8629777039        8.6056905189    0   0   0
P                2.0027943491        8.9729125273       10.0684147711    0   0   0
P                4.3264829709        5.9072233150        7.1233215566    0   0   0
P                2.6975864721        0.6842279838        7.1237165776    0   0   0
P                0.3600548718        3.8098064712       10.0422411307    0   0   0
O                1.2782399310        8.3313556485        8.7840818301    0   0   0
O                3.5801899233        6.5418743157        8.4074952445    0   0   0
O                3.4110096246        1.3409065578        8.4073133792    0   0   0
O                1.1145193192        3.1710799061        8.7821914596    0   0   0
O                1.4401034437        8.1327170307       11.2422597885    0   0   0
O                3.7742239617        6.7348726356        5.9378996613    0   0   0
O                3.2376292769        1.5444217644        5.9527802599    0   0   0
O                0.9344982929        2.9813971073       11.2136317660    0   0   0
O                0.8901473601        5.2731065912       10.0342053048    0   0   0
O                3.3125681011        9.4611400544        7.1283975898    0   0   0
O                3.5429527111        3.7631038396        9.9534984944    0   0   0
O                1.1604369075        0.7225831644        7.2242389413    0   0   0
O                1.1377598861        5.9454910082        7.2365386871    0   0   0
O                3.7796208059        4.4484532944        7.1463587142    0   0   0
O                1.4012333057        0.2043804807       10.0564296187    0   0   0
O                3.5415658549        8.9137683769        9.9791304644    0   0   0
P                6.6669951488        8.9683994847       10.0796441734    0   0   0
P                9.0462348336        5.8767477338        7.1489571572    0   0   0
P                7.4142576596        0.6712898237        7.1316015577    0   0   0
P                5.0801790915        3.8577847517       10.0512114071    0   0   0
O                5.9478651911        8.3028344013        8.7967885085    0   0   0
O                8.2965696935        6.5213144144        8.4098582094    0   0   0
O                8.1278450387        1.3207749553        8.4187159778    0   0   0
O                5.8335486583        3.2019020614        8.7944915909    0   0   0
O                6.1137410786        8.1091295162       11.2476937640    0   0   0
O                8.4671197812        6.7022746701        5.9793186095    0   0   0
O                7.9552460155        1.5275949478        5.9568640428    0   0   0
O                5.6639807711        3.0263983758       11.2189336526    0   0   0
O                5.6045809997        5.3254612392       10.0340966792    0   0   0
O                8.0182247949        9.4427540480        7.1387191890    0   0   0
O                8.2682212747        3.7409006891        9.9534564707    0   0   0
O                5.8794433210        0.7255188143        7.2287187584    0   0   0
O                5.8666840775        5.9447008142        7.2301122184    0   0   0
O                8.5123498573        4.4158645464        7.1630203269    0   0   0
O                6.0755523873        0.2015656283       10.0639880620    0   0   0
O                8.2047287207        8.9241247327        9.9767486279    0   0   0
Ni               2.2746132234        7.5576535994       13.0069398049
Ni               4.7069608646        6.9681705755       15.8819519284
Mn               0.0650286839        2.4407794003       12.9842176716
Ni               2.2862667159        1.8407609425       15.9022800869
Ni               9.4482673359        9.7739525945       14.5536516042
Ni               2.2854817908        4.7094869953       14.5847997911
Ni               6.9513651325        7.5510541882       13.0172071351
Mn               9.4083326861        6.9424086943       16.0874433118
Mn               4.7865167035        2.4517174968       12.9687423379
Ni               6.9795827533        1.8334719393       15.9102969274
Ni               4.7266036397        9.7927713619       14.5364042481
Ni               6.9879577778        4.6949025318       14.5926316720
P                2.0280808144        8.7769689617       16.0010686622
P                4.2849200921        5.7131223771       13.0461981938
P                2.6960247392        0.5252973071       13.0412874112
P                0.2708271173        3.5875301713       16.0927885510
O                1.2873672178        8.2011691370       14.6624540518
O                3.5435651850        6.3601899373       14.3280479171
O                3.4074479978        1.1874216038       14.3221980617
O                1.0280355448        3.0805492950       14.7290176966
O                1.4715719273        7.8663255878       17.0997078314
O                3.7388119864        6.5431142556       11.8575742701
O                3.2363981836        1.3779106588       11.8637552033
O                0.8400516299        2.6539599439       17.1486647486
O                0.7742472471        5.0781597879       16.1272644987
O                3.3074448303        9.3035581154       13.0481048005
O                3.4497816477        3.5917233154       15.9034518180
O                1.1583512417        0.5904689267       13.1590999269
O                1.1018466623        5.7678909231       13.2200723227
O                3.7231649881        4.2620343103       13.0748687027
O                1.4544559856        0.0225569160       16.0271702431
O                3.5721141498        8.7223847314       15.8858737341
P                6.6954050065        8.7567638056       16.0352218268
P                9.0100583695        5.6986997269       13.1217007155
P                7.4182744255        0.5140276246       13.0513067837
P                4.9966793353        3.6428557801       16.0696642180
O                5.9793800919        8.1943478430       14.6625271783
O                8.2785480610        6.3291914881       14.4037815381
O                8.1253303086        1.1626926469       14.3412610539
O                5.7511634489        3.0782549264       14.7223458622
O                6.1398049813        7.8163261161       17.0972039934
O                8.4570010432        6.5433958748       11.9502272344
O                7.9593272092        1.3713453106       11.8758356429
O                5.5594104787        2.7234049013       17.1436231896
O                5.5128371727        5.1286148342       16.0515692346
O                8.0178672605        9.2864371744       13.0572762480
O                8.1725846316        3.5531775463       15.9251821000
O                5.8820751106        0.5883065924       13.1569501819
O                5.8237265590        5.7651560912       13.1766426283
O                8.4616470385        4.2442832948       13.1073886725
O                6.1403271427        0.0104732787       16.0414358374
O                8.2494337852        8.7112878329       15.9283127173
O   8.2882112640  0.9876108076  17.3269773465
H   9.0835222875  1.5913831738  17.4121433898
