&CONTROL 
 calculation = 'scf' 
 restart_mode = 'from_scratch'
 nstep = 1 
 outdir= './OER' 
 pseudo_dir = "~/PSEUDO"
dipfield = .TRUE. 
 tefield = .TRUE. 
 wf_collect = .TRUE. 
 disk_io = 'none' 
 tprnfor = .true.
 / 

 &SYSTEM
ibrav = 0
    degauss = 0.01
    ecutrho = 500
    ecutwfc = 50
    nat = 158
    nspin = 2
    ntyp = 5
    occupations = 'smearing'
    smearing = 'gaussian'
    vdw_corr = 'DFT-D'
    starting_magnetization(1) = 1
    starting_magnetization(2) = 1
    starting_magnetization(3) = 1
    starting_magnetization(4) = 1
    edir = 3
    eamp = 0.0
    emaxpos = 0.75
/
&ELECTRONS
    electron_maxstep = 150
    mixing_beta = 0.1
    startingpot = 'atomic'
    startingwfc = 'atomic+random'
    scf_must_converge = .FALSE.
    mixing_mode = 'local-TF'
/
&IONS
    ion_dynamics = 'bfgs'
/
K_POINTS gamma
ATOMIC_SPECIES
  Ni   58.693   Ni.pbe-n-rrkjus_psl.1.0.0.UPF
  Mn   54.938   Mn.pbe-spn-rrkjus_psl.0.3.1.UPF
  P    30.973   P.pbe-n-rrkjus_psl.1.0.0.UPF
  O    15.999   O.pbe-rrkjus.UPF
  H    1.0079   H.pbe-rrkjus.UPF

CELL_PARAMETERS angstrom
9.3666399000  0.0000000000  0.0000000000
  0.0000000000  10.0759721600  0.0000000000
  0.0000000000  0.0000000000  31.9043898325

ATOMIC_POSITIONS {angstrom} 
  Mn      2.3356739313      7.8358636533     15.8520746270
  Ni      4.6562306168      7.2461787879     12.8311039367
  Ni      0.1054462413      2.8781752501     16.0053237636
  Ni      2.4318036763      2.2395590507     12.8196506189
  Ni      9.3438168179     10.1165793131     14.3819240228
  Ni      2.3766605455      5.0155931026     14.3723565474
  Ni      7.0599385486      7.8527415456     15.6924696153
  Ni      9.2863814694      7.2560271863     12.8512675203
  Ni      4.7166192458      2.7727807415     15.6975673356
  Ni      7.1204231928      2.2201199421     12.7979868845
  Ni      4.6806067897     10.0742981669     14.3509957845
  Ni      7.0787050377      5.0253435735     14.3395428387
   P      1.9694136577      9.1128195575     12.9221179203
   P      4.3851170040      6.0314129353     15.8234311957
   P      2.7036106679      1.0303356078     15.8784877416
   P      0.3987960550      4.0388974707     12.8718058246
   O      1.2559158501      8.4528940198     14.2066626425
   O      3.6564955864      6.6043437538     14.4803489235
   O      3.4146849840      1.5930346929     14.5145464202
   O      1.1192987960      3.3712281543     14.1437612147
   O      1.3815237130      8.2652262047     11.7683677901
   O      3.7848038949      6.9391073730     16.9099653337
   O      3.3119429854      1.9019698226     16.9714746357
   O      0.9647539041      3.2267706921     11.6764898656
   O      0.9519549447      5.4994023352     12.9104569555
   O      3.2263056077      9.6210092374     15.8760320289
   O      3.5567095667      3.9881713237     12.9630032852
   O      1.1614514598      1.0492462532     15.7846694412
   O      1.1961965034      6.1340234303     15.7210797675
   O      3.8650259743      4.5597374343     15.8455499637
   O      1.4168190164      0.4841427601     12.9221213355
   O      3.5035800763      9.0232218669     12.9943015053
   P      6.6529211521      9.1043928590     12.8443600525
   P      9.0126136810      6.0853098547     15.8656047830
   P      7.3803609093      1.0582818610     15.8059845796
   P      5.0928732845      4.0451485000     12.8375277409
   O      5.9199164727      8.4370515455     14.1212530805
   O      8.2958859624      6.6636771075     14.4923641251
   O      8.0955202566      1.6082932156     14.4601106845
   O      5.8231459074      3.3795355230     14.1103331012
   O      6.0844313595      8.2694750436     11.6682756919
   O      8.4815824393      7.0290643108     16.9340991275
   O      7.9156371644      1.9698278438     16.9048760952
   O      5.6604257866      3.2217909222     11.6548135383
   O      5.6620936011      5.4954923257     12.8759173861
   O      7.9057570220      9.6519435618     15.8389532320
   O      8.2273473884      3.9915023731     12.9525682613
   O      5.8272079321      1.0648176077     15.7070665202
   O      5.9236895597      6.1078411950     15.7303126403
   O      8.4592092925      4.6296634918     15.8185976792
   O      6.0804958244      0.4737878868     12.8674471866
   O      8.1867712682      9.0433362018     12.9675077292
  Mn      2.2524368768      7.7240452976     10.0236323639
  Ni      4.6534647676      7.1202901005      6.9822425005
  Ni      0.0619603813      2.6337384440      9.9556760802
  Ni      2.4219525798      2.0896438093      6.9510492594
  Ni      9.3547912696      9.9019397956      8.4440186395
  Ni      2.3579554440      4.8758940102      8.4680010131
  Ni      6.9796879716      7.6924726712      9.9737552430
  Ni      9.3096730862      7.1316559318      6.9896902714
  Ni      4.7877892837      2.6218843324      9.9455480718
  Ni      7.1245715506      2.0553708916      6.9486854554
  Ni      4.7058610954      9.8941863400      8.4294293279
  Ni      7.0530582306      4.8640817481      8.4531033399
   P      1.9603854589      8.9977651159      7.0482873394
   P      4.3608513788      5.8397436861      9.9242203128
   P      2.7263470654      0.8452909389      9.9041174682
   P      0.3711210654      3.8997822466      6.9978917740
   O      1.2123972175      8.3253929520      8.2981876587
   O      3.6291095674      6.4909496873      8.6481394006
   O      3.4680363025      1.4891875754      8.6265731291
   O      1.1093829690      3.2390247331      8.2722091938
   O      1.3596349964      8.1732983076      5.8844425164
   O      3.7923299398      6.6696755998     11.1017409419
   O      3.3003412998      1.6632003659     11.0846454462
   O      0.9531584297      3.0774745500      5.8198181531
   O      0.9136186619      5.3618137311      7.0362164392
   O      3.2629172638      9.5446340885      9.9282608343
   O      3.5446225228      3.8405128423      7.0821078828
   O      1.1879123926      0.8833017255      9.8135924863
   O      1.1354873087      5.9002852466      9.8415499985
   O      3.7965946052      4.3877760984      9.8998794461
   O      1.4392974591      0.3016087220      7.0217319728
   O      3.4959570534      8.9046787901      7.1310821586
   P      6.6688818178      8.9648664905      7.0220839690
   P      9.0062189322      5.8433568154      9.9351828548
   P      7.4256001189      0.7916169815      9.9078014654
   P      5.0827169838      3.8822476802      6.9867459032
   O      5.9261601580      8.3047134747      8.2957315165
   O      8.2821359139      6.5175804600      8.6592372243
   O      8.1641303211      1.4544857869      8.6326835892
   O      5.8185662143      3.2162709709      8.2602842260
   O      6.0955409502      8.1372002858      5.8430941221
   O      8.4431397248      6.6873528892     11.1081253718
   O      8.0075057281      1.6138667826     11.0849006204
   O      5.6616365268      3.0477094258      5.8162644606
   O      5.6428606763      5.3373221456      7.0164591929
   O      7.9606510584      9.4880010964      9.9237323917
   O      8.2411397074      3.8224416068      7.0850651702
   O      5.8887324813      0.8521033415      9.8092820433
   O      5.8962744512      5.9036412465      9.8325045456
   O      8.4527730620      4.3886428208      9.9038173381
   O      6.1330998669      0.2679537444      6.9999548578
   O      8.2056512655      8.9055106833      7.1237153000
  Mn      2.2524368768      7.6070420221      4.2173679033
  Ni      4.6534647676      7.0032868250      1.1759780399
  Ni      0.0619603813      2.5167351685      4.1494116195
  Ni      2.4219525798      1.9726405338      1.1447847987
  Ni      9.3547912696      9.7849365202      2.6377541788
  Ni      2.3579554440      4.7588907347      2.6617365524
  Ni      6.9796879716      7.5754693957      4.1674907823
  Ni      9.3096730862      7.0146526563      1.1834258107
  Ni      4.7877892837      2.5048810569      4.1392836112
  Ni      7.1245715506      1.9383676161      1.1424209947
  Ni      4.7058610954      9.7771830645      2.6231648672
  Ni      7.0530582306      4.7470784726      2.6468388792
   P      1.9603854589      8.8807618404      1.2420228787
   P      4.3608513788      5.7227404107      4.1179558521
   P      2.7263470654      0.7282876635      4.0978530075
   P      0.3711210654      3.7827789711      1.1916273134
   O      1.2123972175      8.2083896765      2.4919231980
   O      3.6291095674      6.3739464118      2.8418749399
   O      3.4680363025      1.3721842999      2.8203086685
   O      1.1093829690      3.1220214576      2.4659447331
   O      1.3596349964      8.0562950321      0.0781780558
   O      3.7923299398      6.5526723243      5.2954764813
   O      3.3003412998      1.5461970904      5.2783809855
   O      0.9531584297      2.9604712745      0.0135536924
   O      0.9136186619      5.2448104556      1.2299519786
   O      3.2629172638      9.4276308131      4.1219963736
   O      3.5446225228      3.7235095668      1.2758434221
   O      1.1879123926      0.7662984500      4.0073280256
   O      1.1354873087      5.7832819711      4.0352855378
   O      3.7965946052      4.2707728229      4.0936149854
   O      1.4392974591      0.1846054465      1.2154675122
   O      3.4959570534      8.7876755146      1.3248176979
   P      6.6688818178      8.8478632150      1.2158195084
   P      9.0062189322      5.7263535399      4.1289183942
   P      7.4256001189      0.6746137060      4.1015370047
   P      5.0827169838      3.7652444047      1.1804814425
   O      5.9261601580      8.1877101992      2.4894670559
   O      8.2821359139      6.4005771845      2.8529727636
   O      8.1641303211      1.3374825114      2.8264191286
   O      5.8185662143      3.0992676954      2.4540197653
   O      6.0955409502      8.0201970103      0.0368296614
   O      8.4431397248      6.5703496137      5.3018609112
   O      8.0075057281      1.4968635071      5.2786361598
   O      5.6616365268      2.9307061503      0.0100000000
   O      5.6428606763      5.2203188701      1.2101947322
   O      7.9606510584      9.3709978209      4.1174679311
   O      8.2411397074      3.7054383313      1.2788007096
   O      5.8887324813      0.7351000660      4.0030175826
   O      5.8962744512      5.7866379710      4.0262400850
   O      8.4527730620      4.2716395453      4.0975528774
   O      6.1330998669      0.1509504689      1.1936903972
   O      8.2056512655      8.7885074078      1.3174508394
   O      1.1790590620      3.6548260176     17.2630317423
   H      1.9502369622      3.0917343729     17.4943793064
