&CONTROL 
 calculation = 'scf' 
 restart_mode = 'from_scratch'
 nstep = 1 
 outdir= './OER' 
 pseudo_dir = "~/PSEUDO"
dipfield = .TRUE. 
 tefield = .TRUE. 
 wf_collect = .TRUE. 
 disk_io = 'none' 
 tprnfor = .true.
 / 

 &SYSTEM
ibrav = 0
    degauss = 0.01
    ecutrho = 500
    ecutwfc = 50
    nat = 158
    nspin = 2
    ntyp = 5
    occupations = 'smearing'
    smearing = 'gaussian'
    vdw_corr = 'DFT-D'
    starting_magnetization(1) = 1
    starting_magnetization(2) = 1
    starting_magnetization(3) = 1
    starting_magnetization(4) = 1
    edir = 3
    eamp = 0.0
    emaxpos = 0.75
/
&ELECTRONS
    electron_maxstep = 300
    mixing_beta = 0.5
    startingpot = 'atomic'
    startingwfc = 'atomic+random'
    scf_must_converge = .FALSE.
    mixing_mode = 'local-TF'
/
&IONS
    ion_dynamics = 'bfgs'
/
K_POINTS gamma
ATOMIC_SPECIES
  Ni   58.693   Ni.pbe-n-rrkjus_psl.1.0.0.UPF
  Mn   54.938   Mn.pbe-spn-rrkjus_psl.0.3.1.UPF
  P    30.973   P.pbe-n-rrkjus_psl.1.0.0.UPF
  O    15.999   O.pbe-rrkjus.UPF
  H    1.0079   H.pbe-rrkjus.UPF

CELL_PARAMETERS angstrom
9.3666399000  0.0000000000  0.0000000000
  0.0000000000  10.0759721600  0.0000000000
  0.0000000000  0.0000000000  31.9043898325

ATOMIC_POSITIONS {angstrom} 
  Mn      2.3296215345      7.8448110179     15.8782878557
  Ni      4.6699068687      7.2515162275     12.8403641122
  Ni     -0.0108141553      2.8157747658     15.6874242775
  Ni      2.4475351801      2.2364311913     12.8160492191
  Ni      9.3323023566     10.0968911318     14.3666187211
  Ni      2.3916870243      5.0357606360     14.3333490739
  Ni      6.9510550273      7.9014228530     15.9919024864
  Ni      9.2968628880      7.2612950978     12.8421583297
  Ni      4.7033015698      2.7670324179     15.6898302514
  Ni      7.1295953510      2.2232273997     12.8089367931
  Ni      4.6924079177     10.0622100940     14.3932436006
  Ni      7.0667055562      5.0433501388     14.3524029104
   P      1.9815230154      9.1124768291     12.9288006327
   P      4.3703317806      5.9958775292     15.8314764844
   P      2.6768755698      1.0773440842     15.8828082079
   P      0.4100771841      4.0622499031     12.8313127125
   O      1.2569050751      8.4466448530     14.2004341905
   O      3.6701807611      6.6171018662     14.5000675968
   O      3.4272975997      1.5914401008     14.5088322703
   O      1.1431778007      3.4045484605     14.1113447809
   O      1.3972861123      8.2712541926     11.7664375750
   O      3.7602218730      6.8619878857     16.9500346263
   O      3.2569129181      1.9872240024     16.9495752236
   O      0.9773602472      3.2309143809     11.6541897970
   O      0.9728282613      5.5155262061     12.8648140722
   O      3.1697526524      9.6603131293     15.9162342425
   O      3.5674753972      3.9910602627     12.9428762280
   O      1.1344047819      1.1111185524     15.7377148961
   O      1.2088184748      6.1004336657     15.7213471555
   O      3.8196352329      4.5356185921     15.8093061579
   O      1.4285829071      0.4843817682     12.9245096535
   O      3.5149763409      9.0214396194     13.0170901066
   P      6.6652401705      9.0851111999     12.8833559689
   P      9.0181453059      6.0770769205     15.8132765936
   P      7.3789837442      1.0632479728     15.8614654775
   P      5.1048717730      4.0463522391     12.8304479582
   O      5.9454039057      8.4070740247     14.1510892621
   O      8.3122937953      6.6373027525     14.4702310202
   O      8.1149663940      1.6366777491     14.4855034642
   O      5.8294554734      3.3831758097     14.1072119172
   O      6.1012188070      8.2671325064     11.6890747016
   O      8.5044134953      6.9986895979     16.9154678845
   O      7.9245455120      2.0058472967     16.9234688369
   O      5.6736795809      3.2172532253     11.6516261224
   O      5.6684915125      5.4976424720     12.8730024596
   O      7.9480689777      9.6833711436     15.8307936854
   O      8.2429296527      4.0006263940     12.9458965151
   O      5.8361735805      1.0867155520     15.7051304770
   O      5.9098420106      6.0441505358     15.7673986094
   O      8.4986208807      4.6002212496     15.8319878118
   O      6.1038569878      0.4622008243     12.9111594676
   O      8.2037935681      9.0370132812     12.9729027717
  Mn      2.2524368768      7.7240452976     10.0236323639
  Ni      4.6534647676      7.1202901005      6.9822425005
  Ni      0.0619603813      2.6337384440      9.9556760802
  Ni      2.4219525798      2.0896438093      6.9510492594
  Ni      9.3547912696      9.9019397956      8.4440186395
  Ni      2.3579554440      4.8758940102      8.4680010131
  Ni      6.9796879716      7.6924726712      9.9737552430
  Ni      9.3096730862      7.1316559318      6.9896902714
  Ni      4.7877892837      2.6218843324      9.9455480718
  Ni      7.1245715506      2.0553708916      6.9486854554
  Ni      4.7058610954      9.8941863400      8.4294293279
  Ni      7.0530582306      4.8640817481      8.4531033399
   P      1.9603854589      8.9977651159      7.0482873394
   P      4.3608513788      5.8397436861      9.9242203128
   P      2.7263470654      0.8452909389      9.9041174682
   P      0.3711210654      3.8997822466      6.9978917740
   O      1.2123972175      8.3253929520      8.2981876587
   O      3.6291095674      6.4909496873      8.6481394006
   O      3.4680363025      1.4891875754      8.6265731291
   O      1.1093829690      3.2390247331      8.2722091938
   O      1.3596349964      8.1732983076      5.8844425164
   O      3.7923299398      6.6696755998     11.1017409419
   O      3.3003412998      1.6632003659     11.0846454462
   O      0.9531584297      3.0774745500      5.8198181531
   O      0.9136186619      5.3618137311      7.0362164392
   O      3.2629172638      9.5446340885      9.9282608343
   O      3.5446225228      3.8405128423      7.0821078828
   O      1.1879123926      0.8833017255      9.8135924863
   O      1.1354873087      5.9002852466      9.8415499985
   O      3.7965946052      4.3877760984      9.8998794461
   O      1.4392974591      0.3016087220      7.0217319728
   O      3.4959570534      8.9046787901      7.1310821586
   P      6.6688818178      8.9648664905      7.0220839690
   P      9.0062189322      5.8433568154      9.9351828548
   P      7.4256001189      0.7916169815      9.9078014654
   P      5.0827169838      3.8822476802      6.9867459032
   O      5.9261601580      8.3047134747      8.2957315165
   O      8.2821359139      6.5175804600      8.6592372243
   O      8.1641303211      1.4544857869      8.6326835892
   O      5.8185662143      3.2162709709      8.2602842260
   O      6.0955409502      8.1372002858      5.8430941221
   O      8.4431397248      6.6873528892     11.1081253718
   O      8.0075057281      1.6138667826     11.0849006204
   O      5.6616365268      3.0477094258      5.8162644606
   O      5.6428606763      5.3373221456      7.0164591929
   O      7.9606510584      9.4880010964      9.9237323917
   O      8.2411397074      3.8224416068      7.0850651702
   O      5.8887324813      0.8521033415      9.8092820433
   O      5.8962744512      5.9036412465      9.8325045456
   O      8.4527730620      4.3886428208      9.9038173381
   O      6.1330998669      0.2679537444      6.9999548578
   O      8.2056512655      8.9055106833      7.1237153000
  Mn      2.2524368768      7.6070420221      4.2173679033
  Ni      4.6534647676      7.0032868250      1.1759780399
  Ni      0.0619603813      2.5167351685      4.1494116195
  Ni      2.4219525798      1.9726405338      1.1447847987
  Ni      9.3547912696      9.7849365202      2.6377541788
  Ni      2.3579554440      4.7588907347      2.6617365524
  Ni      6.9796879716      7.5754693957      4.1674907823
  Ni      9.3096730862      7.0146526563      1.1834258107
  Ni      4.7877892837      2.5048810569      4.1392836112
  Ni      7.1245715506      1.9383676161      1.1424209947
  Ni      4.7058610954      9.7771830645      2.6231648672
  Ni      7.0530582306      4.7470784726      2.6468388792
   P      1.9603854589      8.8807618404      1.2420228787
   P      4.3608513788      5.7227404107      4.1179558521
   P      2.7263470654      0.7282876635      4.0978530075
   P      0.3711210654      3.7827789711      1.1916273134
   O      1.2123972175      8.2083896765      2.4919231980
   O      3.6291095674      6.3739464118      2.8418749399
   O      3.4680363025      1.3721842999      2.8203086685
   O      1.1093829690      3.1220214576      2.4659447331
   O      1.3596349964      8.0562950321      0.0781780558
   O      3.7923299398      6.5526723243      5.2954764813
   O      3.3003412998      1.5461970904      5.2783809855
   O      0.9531584297      2.9604712745      0.0135536924
   O      0.9136186619      5.2448104556      1.2299519786
   O      3.2629172638      9.4276308131      4.1219963736
   O      3.5446225228      3.7235095668      1.2758434221
   O      1.1879123926      0.7662984500      4.0073280256
   O      1.1354873087      5.7832819711      4.0352855378
   O      3.7965946052      4.2707728229      4.0936149854
   O      1.4392974591      0.1846054465      1.2154675122
   O      3.4959570534      8.7876755146      1.3248176979
   P      6.6688818178      8.8478632150      1.2158195084
   P      9.0062189322      5.7263535399      4.1289183942
   P      7.4256001189      0.6746137060      4.1015370047
   P      5.0827169838      3.7652444047      1.1804814425
   O      5.9261601580      8.1877101992      2.4894670559
   O      8.2821359139      6.4005771845      2.8529727636
   O      8.1641303211      1.3374825114      2.8264191286
   O      5.8185662143      3.0992676954      2.4540197653
   O      6.0955409502      8.0201970103      0.0368296614
   O      8.4431397248      6.5703496137      5.3018609112
   O      8.0075057281      1.4968635071      5.2786361598
   O      5.6616365268      2.9307061503      0.0100000000
   O      5.6428606763      5.2203188701      1.2101947322
   O      7.9606510584      9.3709978209      4.1174679311
   O      8.2411397074      3.7054383313      1.2788007096
   O      5.8887324813      0.7351000660      4.0030175826
   O      5.8962744512      5.7866379710      4.0262400850
   O      8.4527730620      4.2716395453      4.0975528774
   O      6.1330998669      0.1509504689      1.1936903972
   O      8.2056512655      8.7885074078      1.3174508394
   O      5.8924983036      8.6573161544     17.2686833879
   H      5.1740727873      8.0644741845     17.5734438370
