&CONTROL 
 calculation = 'scf' 
 restart_mode = 'from_scratch'
 nstep = 1 
 outdir= './OER' 
 pseudo_dir = "~/PSEUDO"
dipfield = .TRUE. 
 tefield = .TRUE. 
 wf_collect = .TRUE. 
 disk_io = 'none' 
 tprnfor = .true.
 / 

 &SYSTEM
ibrav = 0
    degauss = 0.01
    ecutrho = 500
    ecutwfc = 50
    nat = 158
    nspin = 2
    ntyp = 5
    occupations = 'smearing'
    smearing = 'gaussian'
    vdw_corr = 'DFT-D'
    starting_magnetization(1) = 1
    starting_magnetization(2) = 1
    starting_magnetization(3) = 1
    starting_magnetization(4) = 1
    edir = 3
    eamp = 0.0
    emaxpos = 0.75
/
&ELECTRONS
    electron_maxstep = 150
    mixing_beta = 0.1
    startingpot = 'atomic'
    startingwfc = 'atomic+random'
    scf_must_converge = .FALSE.
    mixing_mode = 'local-TF'
/
&IONS
    ion_dynamics = 'bfgs'
/
K_POINTS gamma
ATOMIC_SPECIES
  Ni   58.693   Ni.pbe-n-rrkjus_psl.1.0.0.UPF
  Mn   54.938   Mn.pbe-spn-rrkjus_psl.0.3.1.UPF
  P    30.973   P.pbe-n-rrkjus_psl.1.0.0.UPF
  O    15.999   O.pbe-rrkjus.UPF
  H    1.0079   H.pbe-rrkjus.UPF

CELL_PARAMETERS angstrom
9.2112444241  0.0000000000  0.0000000000
  -0.0129335416  10.1848326152  0.0000000000
  0.0000000000  0.0000000000  32.4277113867

ATOMIC_POSITIONS {angstrom} 
  Ni      2.3089395942      7.8761355725     16.1033459007
  Mn      4.4846003284      7.2709335830     13.1800563644
  Ni     -0.0192565339      2.7979649599     16.0552881566
  Ni      2.3782002933      2.2079455061     13.1861527177
  Ni      4.5879207790     10.1365263020     14.7538368964
  Ni      2.3197798663      5.0318549265     14.7426402733
   P      1.9221652863      9.1976299327     13.2039149528
   P      4.2470699140      6.0263000259     16.2981619787
   P      2.6271574085      0.9931861372     16.2324148203
   P      0.3721130686      4.0581605282     13.1822338313
   O      1.2311535155      8.5256535092     14.4865283866
   O      3.5553965398      6.6599870156     14.9519418815
   O      3.3536542674      1.5608031406     14.8607701176
   O      1.0943927128      3.3979573077     14.4649069858
   O      1.3849033089      8.3618393070     12.0186836626
   O      3.6461596936      6.8968445719     17.3994421006
   O      3.1955980638      1.9101569341     17.3038002800
   O      0.9279899117      3.2488825710     11.9920326387
   O      0.9204590540      5.5199066275     13.2330597828
   O      3.1185545092      9.6938400888     16.2302433567
   O      3.4495606109      3.9979340261     13.3108740703
   O      1.0870541141      1.0593052980     16.0809917244
   O      1.2018970942      6.1393743841     16.0926349669
   O      3.7191410214      4.5512873781     16.2137207817
   O      1.3757499665      0.4609780725     13.2278252083
   O      3.4571993636      9.1148434817     13.3214362791
  Ni      2.2231694467      7.8387150113     10.2441428465
  Mn      4.5291854344      7.1731699804      7.1554177006
  Ni      0.0413377460      2.7013109415     10.2603882940
  Ni      2.3609701921      2.0961861161      7.1899515213
  Ni      4.5771780352     10.0853977451      8.7130228178
  Ni      2.2920501783      4.9198282349      8.7227910824
   P      1.9122808731      9.1033963050      7.2173607613
   P      4.2159980376      5.9505261806     10.2027763372
   P      2.6546169098      0.8591972239     10.2283303116
   P      0.3619242519      3.9045525432      7.2190763494
   O      1.2036838524      8.4272438680      8.5052521184
   O      3.4908594272      6.6070736456      8.9170848147
   O      3.3665734522      1.5317059583      8.9373367535
   O      1.0719826629      3.2671856475      8.5242565260
   O      1.3843584724      8.2616841471      6.0256206039
   O      3.6610322847      6.7741729017     11.3943375015
   O      3.2083661661      1.6483492612     11.4336134640
   O      0.8980336260      3.1100721707      6.0140979227
   O      0.9070304683      5.3599334065      7.2594010652
   O      3.1870699093      9.5847542147     10.1494340391
   O      3.4373778089      3.8725200731      7.3188449707
   O      1.1269987174      0.9116358839     10.1328903704
   O      1.1379920588      6.0211801669     10.1144969906
   O      3.6884944322      4.4881192592     10.1758874244
   O      1.3600796965      0.3668542279      7.2516081594
   O      3.4345382286      9.0669591473      7.3057765327
  Ni      2.2162947113      7.7473428066      4.2400449238
  Mn      4.5223106990      7.0817977756      1.1513197779
  Ni      0.0344630106      2.6099387368      4.2562903713
  Ni      2.3540954567      2.0048139114      1.1858535986
  Ni      4.5703032998      9.9940255404      2.7089248952
  Ni      2.2851754429      4.8284560302      2.7186931597
   P      1.9054061377      9.0120241003      1.2132628386
   P      4.2091233022      5.8591539759      4.1986784145
   P      2.6477421744      0.7678250192      4.2242323889
   P      0.3550495165      3.8131803385      1.2149784268
   O      1.1968091169      8.3358716633      2.5011541957
   O      3.4839846918      6.5157014409      2.9129868921
   O      3.3596987168      1.4403337535      2.9332388308
   O      1.0651079275      3.1758134427      2.5201586033
   O      1.3774837370      8.1703119424      0.0215226813
   O      3.6541575493      6.6828006969      5.3902395788
   O      3.2014914307      1.5569770565      5.4295155413
   O      0.8911588906      3.0186999659      0.0100000000
   O      0.9001557329      5.2685612018      1.2553031425
   O      3.1801951739      9.4933820100      4.1453361164
   O      3.4305030735      3.7811478683      1.3147470481
   O      1.1201239820      0.8202636792      4.1287924477
   O      1.1311173233      5.9298079622      4.1103990679
   O      3.6816196968      4.3967470545      4.1717895017
   O      1.3532049611      0.2754820232      1.2475102367
   O      3.4276634932      8.9755869426      1.3016786101
  Ni      6.8295660093      7.9510853213     16.4069811720
  Mn      9.0655023529      7.2659051784     13.1851817310
  Ni      4.5886506104      2.7602619344     16.0629358719
  Ni      6.9811022772      2.2145405859     13.1863525961
  Ni      9.1746231507     10.1653107384     14.7141396063
  Ni      6.9185786703      5.0580949422     14.7693519650
   P      6.5288063170      9.1872165404     13.2199320600
   P      8.8690339277      6.0994060422     16.2462059844
   P      7.2508575565      1.0269609008     16.2268739154
   P      4.9838052670      4.0488431742     13.1936679285
   O      5.8534051697      8.4958626951     14.4896237838
   O      8.1448188955      6.6847160979     14.9176405970
   O      7.9686230610      1.6118541521     14.8472856717
   O      5.7034751267      3.3969341779     14.4775143001
   O      5.9935016816      8.3730103241     12.0147579857
   O      8.3400541546      6.9942316636     17.3593156761
   O      7.7917807548      1.9748559566     17.2889603948
   O      5.5356925158      3.2448829513     11.9981266143
   O      5.5212853278      5.5127947688     13.2501362976
   O      7.8000434403      9.7545572180     16.1922937951
   O      8.0510307301      4.0203974690     13.3045612754
   O      5.7117028279      1.0686581170     16.0653242201
   O      5.7867465159      6.0756932460     16.1759761165
   O      8.3623166364      4.6113742454     16.2156445636
   O      5.9873935038      0.4547725917     13.2557130692
   O      8.0695326031      9.1181466579     13.3028963248
  Ni      6.8287916588      7.8387150113     10.2441428465
  Mn      9.1348076465      7.1731699804      7.1554177006
  Ni      4.6469599580      2.7013109415     10.2603882940
  Ni      6.9665924042      2.0961861161      7.1899515213
  Ni      9.1828002472     10.0853977451      8.7130228178
  Ni      6.8976723903      4.9198282349      8.7227910824
   P      6.5179030852      9.1033963050      7.2173607613
   P      8.8216202497      5.9505261806     10.2027763372
   P      7.2602391219      0.8591972239     10.2283303116
   P      4.9675464640      3.9045525432      7.2190763494
   O      5.8093060644      8.4272438680      8.5052521184
   O      8.0964816393      6.6070736456      8.9170848147
   O      7.9721956643      1.5317059583      8.9373367535
   O      5.6776048750      3.2671856475      8.5242565260
   O      5.9899806845      8.2616841471      6.0256206039
   O      8.2666544968      6.7741729017     11.3943375015
   O      7.8139883782      1.6483492612     11.4336134640
   O      5.5036558380      3.1100721707      6.0140979227
   O      5.5126526804      5.3599334065      7.2594010652
   O      7.7926921213      9.5847542147     10.1494340391
   O      8.0430000209      3.8725200731      7.3188449707
   O      5.7326209294      0.9116358839     10.1328903704
   O      5.7436142708      6.0211801669     10.1144969906
   O      8.2941166443      4.4881192592     10.1758874244
   O      5.9657019086      0.3668542279      7.2516081594
   O      8.0401604407      9.0669591473      7.3057765327
  Ni      6.8219169233      7.7473428066      4.2400449238
  Mn      9.1279329110      7.0817977756      1.1513197779
  Ni      4.6400852226      2.6099387368      4.2562903713
  Ni      6.9597176688      2.0048139114      1.1858535986
  Ni      9.1759255118      9.9940255404      2.7089248952
  Ni      6.8907976549      4.8284560302      2.7186931597
   P      6.5110283498      9.0120241003      1.2132628386
   P      8.8147455142      5.8591539759      4.1986784145
   P      7.2533643865      0.7678250192      4.2242323889
   P      4.9606717285      3.8131803385      1.2149784268
   O      5.8024313290      8.3358716633      2.5011541957
   O      8.0896069039      6.5157014409      2.9129868921
   O      7.9653209289      1.4403337535      2.9332388308
   O      5.6707301395      3.1758134427      2.5201586033
   O      5.9831059490      8.1703119424      0.0215226813
   O      8.2597797614      6.6828006969      5.3902395788
   O      7.8071136427      1.5569770565      5.4295155413
   O      5.4967811026      3.0186999659      0.0100000000
   O      5.5057779450      5.2685612018      1.2553031425
   O      7.7858173859      9.4933820100      4.1453361164
   O      8.0361252855      3.7811478683      1.3147470481
   O      5.7257461940      0.8202636792      4.1287924477
   O      5.7367395354      5.9298079622      4.1103990679
   O      8.2872419088      4.3967470545      4.1717895017
   O      5.9588271731      0.2754820232      1.2475102367
   O      8.0332857052      8.9755869426      1.3016786101
   O      5.7272829592      8.7389150097     17.6037049838
   H      4.9652353045      8.1471892661     17.8611831077
