&control
    calculation = 'relax'
    tprnfor = .true.
    tstress = .true.
    pseudo_dir = '~/PSEUDO'
    outdir = './tmp'
    nstep = 1000
    tefield = .true.
    dipfield = .true.
/
&SYSTEM
    ibrav = 0
    degauss = 0.01
    ecutrho = 500
    ecutwfc = 50
    nat = 158
    nspin = 2
    ntyp = 5
    occupations = 'smearing'
    smearing = 'gaussian'
    vdw_corr = 'DFT-D'
    starting_magnetization(1) = 1
    starting_magnetization(2) = 1
    starting_magnetization(3) = 1
    starting_magnetization(4) = 1
    edir = 3
    eamp = 0.0
    emaxpos = 0.75
/
&ELECTRONS
    electron_maxstep = 150
    mixing_beta = 0.1
    startingpot = 'atomic'
    startingwfc = 'atomic+random'
    scf_must_converge = .FALSE.
    mixing_mode = 'local-TF'
/
&IONS
    ion_dynamics = 'bfgs'
/
K_POINTS gamma
ATOMIC_SPECIES
  Ni   58.693   Ni.pbe-n-rrkjus_psl.1.0.0.UPF
  Mn   54.938   Mn.pbe-spn-rrkjus_psl.0.3.1.UPF
  P    30.973   P.pbe-n-rrkjus_psl.1.0.0.UPF
  O    15.999   O.pbe-rrkjus.UPF
  H    1.0079   H.pbe-rrkjus.UPF

CELL_PARAMETERS angstrom
9.2112444241  0.0000000000  0.0000000000
  -0.0129335416  10.1848326152  0.0000000000
  0.0000000000  0.0000000000  32.4277113867

ATOMIC_POSITIONS angstrom
Ni  2.2300441821  7.9300872161  16.2482407692
Mn  4.5360601698  7.2645421851  13.1595156233
Ni  0.0482124814  2.7926831463  16.2644862166
Ni  2.3678449275  2.1875583209  13.1940494440
Ni  4.5840527706  10.1767699498  14.7171207405
Ni  2.2989249137  5.0112004397  14.7268890051
P  1.9191556085  9.1947685098  13.2214586839
P  4.2228727730  6.0418983853  16.2068742599
P  2.6614916452  0.9505694287  16.2324282342
P  0.3687989873  3.9959247479  13.2231742721
O  1.2105585878  8.5186160728  14.5093500411
O  3.4977341627  6.6984458504  14.9211827374
O  3.3734481877  1.6230781630  14.9414346761
O  1.0788573983  3.3585578522  14.5283544487
O  1.3912332078  8.3530563518  12.0297185266
O  3.6679070201  6.8655451064  17.3984354242
O  3.2152409015  1.7397214659  17.4377113867
O  0.9049083614  3.2014443754  12.0181958454
O  0.9139052037  5.4513056112  13.2634989879
O  3.1939446447  9.6761264195  16.1535319618
O  3.4442525443  3.9638922778  13.3229428934
O  1.1338734528  1.0030080887  16.1369882931
O  1.1448667942  6.1125523717  16.1185949133
O  3.6953691676  4.5794914639  16.1799853471
O  1.3669544319  0.4582264326  13.2557060820
O  3.4414129640  9.1583313520  13.3098744554
Ni  2.2231694467  7.8387150113  10.2441428465  0 0 0
Mn  4.5291854344  7.1731699804  7.1554177006  0 0 0
Ni  0.0413377460  2.7013109415  10.2603882940  0 0 0
Ni  2.3609701921  2.0961861161  7.1899515213  0 0 0
Ni  4.5771780352  10.0853977451  8.7130228178  0 0 0
Ni  2.2920501783  4.9198282349  8.7227910824  0 0 0
P  1.9122808731  9.1033963050  7.2173607613  0 0 0
P  4.2159980376  5.9505261806  10.2027763372  0 0 0
P  2.6546169098  0.8591972239  10.2283303116  0 0 0
P  0.3619242519  3.9045525432  7.2190763494  0 0 0
O  1.2036838524  8.4272438680  8.5052521184  0 0 0
O  3.4908594272  6.6070736456  8.9170848147  0 0 0
O  3.3665734522  1.5317059583  8.9373367535  0 0 0
O  1.0719826629  3.2671856475  8.5242565260  0 0 0
O  1.3843584724  8.2616841471  6.0256206039  0 0 0
O  3.6610322847  6.7741729017  11.3943375015  0 0 0
O  3.2083661661  1.6483492612  11.4336134640  0 0 0
O  0.8980336260  3.1100721707  6.0140979227  0 0 0
O  0.9070304683  5.3599334065  7.2594010652  0 0 0
O  3.1870699093  9.5847542147  10.1494340391  0 0 0
O  3.4373778089  3.8725200731  7.3188449707  0 0 0
O  1.1269987174  0.9116358839  10.1328903704  0 0 0
O  1.1379920588  6.0211801669  10.1144969906  0 0 0
O  3.6884944322  4.4881192592  10.1758874244  0 0 0
O  1.3600796965  0.3668542279  7.2516081594  0 0 0
O  3.4345382286  9.0669591473  7.3057765327  0 0 0
Ni  2.2162947113  7.7473428066  4.2400449238  0 0 0
Mn  4.5223106990  7.0817977756  1.1513197779  0 0 0
Ni  0.0344630106  2.6099387368  4.2562903713  0 0 0
Ni  2.3540954567  2.0048139114  1.1858535986  0 0 0
Ni  4.5703032998  9.9940255404  2.7089248952  0 0 0
Ni  2.2851754429  4.8284560302  2.7186931597  0 0 0
P  1.9054061377  9.0120241003  1.2132628386  0 0 0
P  4.2091233022  5.8591539759  4.1986784145  0 0 0
P  2.6477421744  0.7678250192  4.2242323889  0 0 0
P  0.3550495165  3.8131803385  1.2149784268  0 0 0
O  1.1968091169  8.3358716633  2.5011541957  0 0 0
O  3.4839846918  6.5157014409  2.9129868921  0 0 0
O  3.3596987168  1.4403337535  2.9332388308  0 0 0
O  1.0651079275  3.1758134427  2.5201586033  0 0 0
O  1.3774837370  8.1703119424  0.0215226813  0 0 0
O  3.6541575493  6.6828006969  5.3902395788  0 0 0
O  3.2014914307  1.5569770565  5.4295155413  0 0 0
O  0.8911588906  3.0186999659  0.0100000000  0 0 0
O  0.9001557329  5.2685612018  1.2553031425  0 0 0
O  3.1801951739  9.4933820100  4.1453361164  0 0 0
O  3.4305030735  3.7811478683  1.3147470481  0 0 0
O  1.1201239820  0.8202636792  4.1287924477  0 0 0
O  1.1311173233  5.9298079622  4.1103990679  0 0 0
O  3.6816196968  4.3967470545  4.1717895017  0 0 0
O  1.3532049611  0.2754820232  1.2475102367  0 0 0
O  3.4276634932  8.9755869426  1.3016786101  0 0 0
Ni  6.8356663942  7.9300872161  16.2482407692
Mn  9.1416823819  7.2645421851  13.1595156233
Ni  4.6538346934  2.7926831463  16.2644862166
Ni  6.9734671396  2.1875583209  13.1940494440
Ni  9.1896749827  10.1767699498  14.7171207405
Ni  6.9045471258  5.0112004397  14.7268890051
P  6.5247778206  9.1947685098  13.2214586839
P  8.8284949851  6.0418983853  16.2068742599
P  7.2671138573  0.9505694287  16.2324282342
P  4.9744211994  3.9959247479  13.2231742721
O  5.8161807998  8.5186160728  14.5093500411
O  8.1033563747  6.6984458504  14.9211827374
O  7.9790703997  1.6230781630  14.9414346761
O  5.6844796104  3.3585578522  14.5283544487
O  5.9968554199  8.3530563518  12.0297185266
O  8.2735292322  6.8655451064  17.3984354242
O  7.8208631136  1.7397214659  17.4377113867
O  5.5105305734  3.2014443754  12.0181958454
O  5.5195274158  5.4513056112  13.2634989879
O  7.7995668567  9.6761264195  16.1535319618
O  8.0498747564  3.9638922778  13.3229428934
O  5.7394956648  1.0030080887  16.1369882931
O  5.7504890062  6.1125523717  16.1185949133
O  8.3009913797  4.5794914639  16.1799853471
O  5.9725766440  0.4582264326  13.2557060820
O  8.0470351761  9.1583313520  13.3098744554
Ni  6.8287916588  7.8387150113  10.2441428465  0 0 0
Mn  9.1348076465  7.1731699804  7.1554177006  0 0 0
Ni  4.6469599580  2.7013109415  10.2603882940  0 0 0
Ni  6.9665924042  2.0961861161  7.1899515213  0 0 0
Ni  9.1828002472  10.0853977451  8.7130228178  0 0 0
Ni  6.8976723903  4.9198282349  8.7227910824  0 0 0
P  6.5179030852  9.1033963050  7.2173607613  0 0 0
P  8.8216202497  5.9505261806  10.2027763372  0 0 0
P  7.2602391219  0.8591972239  10.2283303116  0 0 0
P  4.9675464640  3.9045525432  7.2190763494  0 0 0
O  5.8093060644  8.4272438680  8.5052521184  0 0 0
O  8.0964816393  6.6070736456  8.9170848147  0 0 0
O  7.9721956643  1.5317059583  8.9373367535  0 0 0
O  5.6776048750  3.2671856475  8.5242565260  0 0 0
O  5.9899806845  8.2616841471  6.0256206039  0 0 0
O  8.2666544968  6.7741729017  11.3943375015  0 0 0
O  7.8139883782  1.6483492612  11.4336134640  0 0 0
O  5.5036558380  3.1100721707  6.0140979227  0 0 0
O  5.5126526804  5.3599334065  7.2594010652  0 0 0
O  7.7926921213  9.5847542147  10.1494340391  0 0 0
O  8.0430000209  3.8725200731  7.3188449707  0 0 0
O  5.7326209294  0.9116358839  10.1328903704  0 0 0
O  5.7436142708  6.0211801669  10.1144969906  0 0 0
O  8.2941166443  4.4881192592  10.1758874244  0 0 0
O  5.9657019086  0.3668542279  7.2516081594  0 0 0
O  8.0401604407  9.0669591473  7.3057765327  0 0 0
Ni  6.8219169233  7.7473428066  4.2400449238  0 0 0
Mn  9.1279329110  7.0817977756  1.1513197779  0 0 0
Ni  4.6400852226  2.6099387368  4.2562903713  0 0 0
Ni  6.9597176688  2.0048139114  1.1858535986  0 0 0
Ni  9.1759255118  9.9940255404  2.7089248952  0 0 0
Ni  6.8907976549  4.8284560302  2.7186931597  0 0 0
P  6.5110283498  9.0120241003  1.2132628386  0 0 0
P  8.8147455142  5.8591539759  4.1986784145  0 0 0
P  7.2533643865  0.7678250192  4.2242323889  0 0 0
P  4.9606717285  3.8131803385  1.2149784268  0 0 0
O  5.8024313290  8.3358716633  2.5011541957  0 0 0
O  8.0896069039  6.5157014409  2.9129868921  0 0 0
O  7.9653209289  1.4403337535  2.9332388308  0 0 0
O  5.6707301395  3.1758134427  2.5201586033  0 0 0
O  5.9831059490  8.1703119424  0.0215226813  0 0 0
O  8.2597797614  6.6828006969  5.3902395788  0 0 0
O  7.8071136427  1.5569770565  5.4295155413  0 0 0
O  5.4967811026  3.0186999659  0.0100000000  0 0 0
O  5.5057779450  5.2685612018  1.2553031425  0 0 0
O  7.7858173859  9.4933820100  4.1453361164  0 0 0
O  8.0361252855  3.7811478683  1.3147470481  0 0 0
O  5.7257461940  0.8202636792  4.1287924477  0 0 0
O  5.7367395354  5.9298079622  4.1103990679  0 0 0
O  8.2872419088  4.3967470545  4.1717895017  0 0 0
O  5.9588271731  0.2754820232  1.2475102367  0 0 0
O  8.0332857052  8.9755869426  1.3016786101  0 0 0
O   6.0046761580  3.5424051900  17.6403616800
H   6.7618395660  3.0169693910  17.6116542600
