&control
    calculation = 'relax'
    tprnfor = .true.
    tstress = .true.
    pseudo_dir = '~/PSEUDO'
    outdir = './tmp'
    nstep = 1000
    tefield = .true.
    dipfield = .true.
/
&SYSTEM
    ibrav = 0
    degauss = 0.01
    ecutrho = 500
    ecutwfc = 50
    nat = 158
    nspin = 2
    ntyp = 5
    occupations = 'smearing'
    smearing = 'gaussian'
    vdw_corr = 'DFT-D'
    starting_magnetization(1) = 1
    starting_magnetization(2) = 1
    starting_magnetization(3) = 1
    starting_magnetization(4) = 1
    edir = 3
    eamp = 0.0
    emaxpos = 0.75
/
&ELECTRONS
    electron_maxstep = 150
    mixing_beta = 0.1
    startingpot = 'atomic'
    startingwfc = 'atomic+random'
    scf_must_converge = .FALSE.
    mixing_mode = 'local-TF'
/
&IONS
    ion_dynamics = 'bfgs'
/
K_POINTS gamma
ATOMIC_SPECIES
  Ni   58.693   Ni.pbe-n-rrkjus_psl.1.0.0.UPF
  Mn   54.938   Mn.pbe-spn-rrkjus_psl.0.3.1.UPF
  P    30.973   P.pbe-n-rrkjus_psl.1.0.0.UPF
  O    15.999   O.pbe-rrkjus.UPF
  H    1.0079   H.pbe-rrkjus.UPF

CELL_PARAMETERS angstrom
9.4474829294  0.0000000000  0.0000000000
  0.0305814238  10.2221506046  0.0000000000
  0.0000000000  0.0000000000  32.1655934253

ATOMIC_POSITIONS angstrom
Ni  2.3129220139  7.8972772973  16.0358389189
Ni  4.6490610887  7.3047442111  12.9919039395
Mn  0.1067761731  2.7576721292  16.0892016735
Ni  2.4432273613  2.1432234008  13.0120472223
Ni  9.4662145937  10.1142894701  14.5066438333
Ni  2.3789698370  5.0440683314  14.5181124684
Ni  6.9920813749  7.8878789031  16.0276871347
Mn  9.3406898946  7.2753604651  12.9416191120
Mn  4.8308954384  2.7819693590  16.0907317433
Ni  7.1431070376  2.1387615578  13.0071625217
Ni  4.7326084235  10.1203689183  14.5189375850
Ni  7.0827571848  5.0417436272  14.5078025677
P  2.0291231354  9.1516784506  13.0450783155
P  4.3528117572  6.0859892383  15.9901715301
P  2.7239152584  0.8629939071  15.9897765090
P  0.3863836581  3.9885723945  13.0712519559
O  1.3045687173  8.5101215718  14.3294112566
O  3.6065187097  6.7206402390  14.7059978421
O  3.4373384109  1.5196724811  14.7061797074
O  1.1408481055  3.3498458294  14.3313016270
O  1.4664322300  8.3114829540  11.8712332982
O  3.8005527481  6.9136385589  17.1755934253
O  3.2639580632  1.7231876877  17.1607128268
O  0.9608270792  3.1601630306  11.8998613206
O  0.9164761464  5.4518725145  13.0792877818
O  3.3388968874  9.6399059777  15.9850954969
O  3.5692814975  3.9418697628  13.1599945923
O  1.1867656938  0.9013490877  15.8892541453
O  1.1640886725  6.1242569315  15.8769543995
O  3.8059495922  4.6272192177  15.9671343725
O  1.4275620920  0.3831464040  13.0570634680
O  3.5678946412  9.0925343002  13.1343626222
P  6.6933239351  9.1471654079  13.0338489133
P  9.0725636199  6.0555136571  15.9645359294
P  7.4405864459  0.8500557470  15.9818915289
P  5.1065078778  4.0365506749  13.0622816795
O  5.9741939775  8.4816003245  14.3167045781
O  8.3228984798  6.7000803377  14.7036348772
O  8.1541738250  1.4995408786  14.6947771088
O  5.8598774446  3.3806679847  14.3190014957
O  6.1400698649  8.2878954395  11.8657993227
O  8.4934485675  6.8810405934  17.1341744771
O  7.9815748019  1.7063608711  17.1566290438
O  5.6903095574  3.2051642990  11.8945594340
O  5.6309097860  5.5042271625  13.0793964074
O  8.0445535812  9.6215199712  15.9747738976
O  8.2945500610  3.9196666124  13.1600366159
O  5.9057721073  0.9042847376  15.8847743283
O  5.8930128638  6.1234667375  15.8833808682
O  8.5386786436  4.5946304697  15.9504727597
O  6.1018811736  0.3803315516  13.0495050246
O  8.2310575070  9.1028906560  13.1367444588
Ni  2.2865932276  7.7185113740  10.1079392575  0 0 0
Ni  4.6227323024  7.1259782878  7.0640042782  0 0 0
Mn  0.0804473868  2.5789062059  10.1613020121  0 0 0
Ni  2.4168985750  1.9644574775  7.0841475609  0 0 0
Ni  9.4398858074  9.9355235468  8.5787441720  0 0 0
Ni  2.3526410507  4.8653024081  8.5902128070  0 0 0
Ni  6.9657525885  7.7091129798  10.0997874733  0 0 0
Mn  9.3143611083  7.0965945418  7.0137194507  0 0 0
Mn  4.8045666521  2.6032034357  10.1628320820  0 0 0
Ni  7.1167782512  1.9599956345  7.0792628603  0 0 0
Ni  4.7062796372  9.9416029950  8.5910379236  0 0 0
Ni  7.0564283985  4.8629777039  8.5799029064  0 0 0
P  2.0027943491  8.9729125273  7.1171786542  0 0 0
P  4.3264829709  5.9072233150  10.0622718687  0 0 0
P  2.6975864721  0.6842279838  10.0618768477  0 0 0
P  0.3600548718  3.8098064712  7.1433522946  0 0 0
O  1.2782399310  8.3313556485  8.4015115952  0 0 0
O  3.5801899233  6.5418743157  8.7780981808  0 0 0
O  3.4110096246  1.3409065578  8.7782800461  0 0 0
O  1.1145193192  3.1710799061  8.4034019657  0 0 0
O  1.4401034437  8.1327170307  5.9433336368  0 0 0
O  3.7742239617  6.7348726356  11.2476937640  0 0 0
O  3.2376292769  1.5444217644  11.2328131654  0 0 0
O  0.9344982929  2.9813971073  5.9719616593  0 0 0
O  0.8901473601  5.2731065912  7.1513881205  0 0 0
O  3.3125681011  9.4611400544  10.0571958355  0 0 0
O  3.5429527111  3.7631038396  7.2320949309  0 0 0
O  1.1604369075  0.7225831644  9.9613544840  0 0 0
O  1.1377598861  5.9454910082  9.9490547382  0 0 0
O  3.7796208059  4.4484532944  10.0392347111  0 0 0
O  1.4012333057  0.2043804807  7.1291638066  0 0 0
O  3.5415658549  8.9137683769  7.2064629609  0 0 0
P  6.6669951488  8.9683994847  7.1059492519  0 0 0
P  9.0462348336  5.8767477338  10.0366362681  0 0 0
P  7.4142576596  0.6712898237  10.0539918676  0 0 0
P  5.0801790915  3.8577847517  7.1343820182  0 0 0
O  5.9478651911  8.3028344013  8.3888049168  0 0 0
O  8.2965696935  6.5213144144  8.7757352159  0 0 0
O  8.1278450387  1.3207749553  8.7668774475  0 0 0
O  5.8335486583  3.2019020614  8.3911018344  0 0 0
O  6.1137410786  8.1091295162  5.9378996613  0 0 0
O  8.4671197812  6.7022746701  11.2062748158  0 0 0
O  7.9552460155  1.5275949478  11.2287293825  0 0 0
O  5.6639807711  3.0263983758  5.9666597727  0 0 0
O  5.6045809997  5.3254612392  7.1514967461  0 0 0
O  8.0182247949  9.4427540480  10.0468742363  0 0 0
O  8.2682212747  3.7409006891  7.2321369546  0 0 0
O  5.8794433210  0.7255188143  9.9568746669  0 0 0
O  5.8666840775  5.9447008142  9.9554812069  0 0 0
O  8.5123498573  4.4158645464  10.0225730984  0 0 0
O  6.0755523873  0.2015656283  7.1216053633  0 0 0
O  8.2047287207  8.9241247327  7.2088447974  0 0 0
Ni  2.2602644412  7.5397454508  4.1800395962  0 0 0
Ni  4.5964035161  6.9472123645  1.1361046169  0 0 0
Mn  0.0541186005  2.4001402826  4.2334023508  0 0 0
Ni  2.3905697887  1.7856915542  1.1562478996  0 0 0
Ni  9.4135570211  9.7567576235  2.6508445106  0 0 0
Ni  2.3263122643  4.6865364848  2.6623131457  0 0 0
Ni  6.9394238022  7.5303470565  4.1718878120  0 0 0
Mn  9.2880323220  6.9178286185  1.0858197893  0 0 0
Mn  4.7782378658  2.4244375125  4.2349324206  0 0 0
Ni  7.0904494649  1.7812297112  1.1513631990  0 0 0
Ni  4.6799508509  9.7628370717  2.6631382623  0 0 0
Ni  7.0300996122  4.6842117806  2.6520032451  0 0 0
P  1.9764655628  8.7941466040  1.1892789928  0 0 0
P  4.3001541846  5.7284573917  4.1343722074  0 0 0
P  2.6712576858  0.5054620606  4.1339771864  0 0 0
P  0.3337260855  3.6310405479  1.2154526333  0 0 0
O  1.2519111447  8.1525897252  2.4736119339  0 0 0
O  3.5538611370  6.3631083924  2.8501985194  0 0 0
O  3.3846808383  1.1621406345  2.8503803848  0 0 0
O  1.0881905329  2.9923139828  2.4755023044  0 0 0
O  1.4137746574  7.9539511074  0.0154339755  0 0 0
O  3.7478951754  6.5561067123  5.3197941026  0 0 0
O  3.2113004906  1.3656558411  5.3049135041  0 0 0
O  0.9081695066  2.8026311840  0.0440619979  0 0 0
O  0.8638185738  5.0943406679  1.2234884592  0 0 0
O  3.2862393148  9.2823741311  4.1292961742  0 0 0
O  3.5166239248  3.5843379163  1.3041952696  0 0 0
O  1.1341081212  0.5438172412  4.0334548227  0 0 0
O  1.1114310998  5.7667250849  4.0211550768  0 0 0
O  3.7532920196  4.2696873711  4.1113350498  0 0 0
O  1.3749045194  0.0256145574  1.2012641453  0 0 0
O  3.5152370686  8.7350024536  1.2785632995  0 0 0
P  6.6406663624  8.7896335614  1.1780495906  0 0 0
P  9.0199060473  5.6979818105  4.1087366067  0 0 0
P  7.3879288733  0.4925239004  4.1260922063  0 0 0
P  5.0538503052  3.6790188284  1.2064823569  0 0 0
O  5.9215364048  8.1240684780  2.4609052555  0 0 0
O  8.2702409072  6.3425484912  2.8478355546  0 0 0
O  8.1015162524  1.1420090320  2.8389777861  0 0 0
O  5.8072198720  3.0231361382  2.4632021730  0 0 0
O  6.0874122923  7.9303635929  0.0100000000  0 0 0
O  8.4407909948  6.5235087468  5.2783751545  0 0 0
O  7.9289172292  1.3488290245  5.3008297212  0 0 0
O  5.6376519848  2.8476324525  0.0387601113  0 0 0
O  5.5782522134  5.1466953159  1.2235970847  0 0 0
O  7.9918960086  9.2639881247  4.1189745750  0 0 0
O  8.2418924884  3.5621347659  1.3042372932  0 0 0
O  5.8531145347  0.5467528910  4.0289750056  0 0 0
O  5.8403552912  5.7659348909  4.0275815455  0 0 0
O  8.4860210710  4.2370986231  4.0946734371  0 0 0
O  6.0492236010  0.0227997050  1.1937057019  0 0 0
O  8.1783999343  8.7453588095  1.2809451361  0 0 0
O   5.9128909674  8.8620125367  17.6484427047
H   5.0977453207  8.2394123411  17.6729856635
