&control
    calculation = 'relax'
    tprnfor = .true.
    tstress = .true.
    pseudo_dir = '~/PSEUDO'
    outdir = './tmp'
    nstep = 1000
    tefield = .true.
    dipfield = .true.
/

&SYSTEM
    ibrav = 0
    degauss = 0.01
    ecutrho = 500
    ecutwfc = 50
    nat = 156
    nspin = 2
    ntyp = 5
    occupations = 'smearing'
    smearing = 'gaussian'
    vdw_corr = 'DFT-D'
    starting_magnetization(1) = 1
    starting_magnetization(2) = 1
    starting_magnetization(3) = 1
    starting_magnetization(4) = 1
    edir = 3
    eamp = 0.0
    emaxpos = 0.75
/

&ELECTRONS
    electron_maxstep = 150
    mixing_beta = 0.1
    startingpot = 'atomic'
    startingwfc = 'atomic+random'
    scf_must_converge = .FALSE.
    mixing_mode = 'local-TF'
/

&IONS
    ion_dynamics = 'bfgs'
/

K_POINTS gamma

ATOMIC_SPECIES
  Ni   58.693   Ni.pbe-n-rrkjus_psl.1.0.0.UPF
  Mn   54.938   Mn.pbe-spn-rrkjus_psl.0.3.1.UPF
  P    30.973   P.pbe-n-rrkjus_psl.1.0.0.UPF
  O    15.999   O.pbe-rrkjus.UPF
  H    1.0079   H.pbe-rrkjus.UPF

CELL_PARAMETERS angstrom
  9.3666399000  0.0000000000  0.0000000000
  0.0000000000  10.0759721600  0.0000000000
  0.0000000000  0.0000000000  31.9043898325

ATOMIC_POSITIONS angstrom
  Mn  2.2524368768  7.8410485731  1.0944930079  0 0 0
  Ni  4.6534647676  7.2372933759  4.1358828713  0 0 0
  Ni  0.0619603813  2.7507417195  1.1624492917  0 0 0
  Ni  2.4219525798  2.2066470848  4.1670761125  0 0 0
  Ni  9.3547912696  10.0189430711  2.6741067324  0 0 0
  Ni  2.3579554440  4.9928972857  2.6501243588  0 0 0
  Ni  6.9796879716  7.8094759467  1.1443701289  0 0 0
  Ni  9.3096730862  7.2486592073  4.1284351004  0 0 0
  Ni  4.7877892837  2.7388876079  1.1725773000  0 0 0
  Ni  7.1245715506  2.1723741671  4.1694399165  0 0 0
  Ni  4.7058610954  10.0111896155  2.6886960440  0 0 0
  Ni  7.0530582306  4.9810850236  2.6650220320  0 0 0
  P  1.9603854589  9.1147683914  4.0698380325  0 0 0
  P  4.3608513788  5.9567469616  1.1939050591  0 0 0
  P  2.7263470654  0.9622942144  1.2140079036  0 0 0
  P  0.3711210654  4.0167855221  4.1202335978  0 0 0
  O  1.2123972175  8.4423962275  2.8199377132  0 0 0
  O  3.6291095674  6.6079529628  2.4699859713  0 0 0
  O  3.4680363025  1.6061908509  2.4915522427  0 0 0
  O  1.1093829690  3.3560280086  2.8459161781  0 0 0
  O  1.3596349964  8.2903015831  5.2336828554  0 0 0
  O  3.7923299398  6.7866788753  0.0163844299  0 0 0
  O  3.3003412998  1.7802036414  0.0334799257  0 0 0
  O  0.9531584297  3.1944778255  5.2983072187  0 0 0
  O  0.9136186619  5.4788170066  4.0819089326  0 0 0
  O  3.2629172638  9.6616373640  1.1898645376  0 0 0
  O  3.5446225228  3.9575161178  4.0360174891  0 0 0
  O  1.1879123926  1.0003050009  1.3045328856  0 0 0
  O  1.1354873087  6.0172885221  1.2765753734  0 0 0
  O  3.7965946052  4.5047793739  1.2182459258  0 0 0
  O  1.4392974591  0.4186119975  4.0963933990  0 0 0
  O  3.4959570534  9.0216820656  3.9870432133  0 0 0
  P  6.6688818178  9.0818697660  4.0960414028  0 0 0
  P  9.0062189322  5.9603600909  1.1829425170  0 0 0
  P  7.4256001189  0.9086202570  1.2103239064  0 0 0
  P  5.0827169838  3.9992509557  4.1313794687  0 0 0
  O  5.9261601580  8.4217167502  2.8223938553  0 0 0
  O  8.2821359139  6.6345837355  2.4588881476  0 0 0
  O  8.1641303211  1.5714890624  2.4854417826  0 0 0
  O  5.8185662143  3.3332742464  2.8578411459  0 0 0
  O  6.0955409502  8.2542035613  5.2750312498  0 0 0
  O  8.4431397248  6.8043561646  0.0100000000  0 0 0
  O  8.0075057281  1.7308700581  0.0332247514  0 0 0
  O  5.6616365268  3.1647127013  5.3018609112  0 0 0
  O  5.6428606763  5.4543254211  4.1016661790  0 0 0
  O  7.9606510584  9.6050043719  1.1943929801  0 0 0
  O  8.2411397074  3.9394448823  4.0330602016  0 0 0
  O  5.8887324813  0.9691066170  1.3088433286  0 0 0
  O  5.8962744512  6.0206445220  1.2856208262  0 0 0
  O  8.4527730620  4.5056460963  1.2143080338  0 0 0
  O  6.1330998669  0.3849570199  4.1181705140  0 0 0
  O  8.2056512655  9.0225139588  3.9944100718  0 0 0
  Mn  2.2524368768  7.7240452976  6.9007574686  0 0 0
  Ni  4.6534647676  7.1202901005  9.9421473320  0 0 0
  Ni  0.0619603813  2.6337384440  6.9687137523  0 0 0
  Ni  2.4219525798  2.0896438093  9.9733405731  0 0 0
  Ni  9.3547912696  9.9019397956  8.4803711930  0 0 0
  Ni  2.3579554440  4.8758940102  8.4563888194  0 0 0
  Ni  6.9796879716  7.6924726712  6.9506345895  0 0 0
  Ni  9.3096730862  7.1316559318  9.9346995611  0 0 0
  Ni  4.7877892837  2.6218843324  6.9788417607  0 0 0
  Ni  7.1245715506  2.0553708916  9.9757043771  0 0 0
  Ni  4.7058610954  9.8941863400  8.4949605046  0 0 0
  Ni  7.0530582306  4.8640817481  8.4712864926  0 0 0
  P  1.9603854589  8.9977651159  9.8761024931  0 0 0
  P  4.3608513788  5.8397436861  7.0001695197  0 0 0
  P  2.7263470654  0.8452909389  7.0202723643  0 0 0
  P  0.3711210654  3.8997822466  9.9264980585  0 0 0
  O  1.2123972175  8.3253929520  8.6262021738  0 0 0
  O  3.6291095674  6.4909496873  8.2762504319  0 0 0
  O  3.4680363025  1.4891875754  8.2978167034  0 0 0
  O  1.1093829690  3.2390247331  8.6521806387  0 0 0
  O  1.3596349964  8.1732983076  11.0399473161  0 0 0
  O  3.7923299398  6.6696755998  5.8226488906  0 0 0
  O  3.3003412998  1.6632003659  5.8397443863  0 0 0
  O  0.9531584297  3.0774745500  11.1045716794  0 0 0
  O  0.9136186619  5.3618137311  9.8881733933  0 0 0
  O  3.2629172638  9.5446340885  6.9961289982  0 0 0
  O  3.5446225228  3.8405128423  9.8422819497  0 0 0
  O  1.1879123926  0.8833017255  7.1107973462  0 0 0
  O  1.1354873087  5.9002852466  7.0828398340  0 0 0
  O  3.7965946052  4.3877760984  7.0245103864  0 0 0
  O  1.4392974591  0.3016087220  9.9026578597  0 0 0
  O  3.4959570534  8.9046787901  9.7933076739  0 0 0
  P  6.6688818178  8.9648664905  9.9023058635  0 0 0
  P  9.0062189322  5.8433568154  6.9892069777  0 0 0
  P  7.4256001189  0.7916169815  7.0165883671  0 0 0
  P  5.0827169838  3.8822476802  9.9376439293  0 0 0
  O  5.9261601580  8.3047134747  8.6286583160  0 0 0
  O  8.2821359139  6.5175804600  8.2651526082  0 0 0
  O  8.1641303211  1.4544857869  8.2917062433  0 0 0
  O  5.8185662143  3.2162709709  8.6641056065  0 0 0
  O  6.0955409502  8.1372002858  11.0812957104  0 0 0
  O  8.4431397248  6.6873528892  5.8162644607  0 0 0
  O  8.0075057281  1.6138667826  5.8394892121  0 0 0
  O  5.6616365268  3.0477094258  11.1081253719  0 0 0
  O  5.6428606763  5.3373221456  9.9079306396  0 0 0
  O  7.9606510584  9.4880010964  7.0006574408  0 0 0
  O  8.2411397074  3.8224416068  9.8393246623  0 0 0
  O  5.8887324813  0.8521033415  7.1151077892  0 0 0
  O  5.8962744512  5.9036412465  7.0918852869  0 0 0
  O  8.4527730620  4.3886428208  7.0205724944  0 0 0
  O  6.1330998669  0.2679537444  9.9244349747  0 0 0
  O  8.2056512655  8.9055106833  9.8006745325  0 0 0
  Mn  2.2524368768  7.6070420221  12.7070219292
  Ni  4.6534647676  7.0032868250  15.7484117926
  Ni  0.0619603813  2.5167351685  12.7749782130
  Ni  2.4219525798  1.9726405338  15.7796050338
  Ni  9.3547912696  9.7849365202  14.2866356537
  Ni  2.3579554440  4.7588907347  14.2626532801
  Ni  6.9796879716  7.5754693957  12.7568990502
  Ni  9.3096730862  7.0146526563  15.7409640218
  Ni  4.7877892837  2.5048810569  12.7851062213
  Ni  7.1245715506  1.9383676161  15.7819688378
  Ni  4.7058610954  9.7771830645  14.3012249653
  Ni  7.0530582306  4.7470784726  14.2775509533
  P  1.9603854589  8.8807618404  15.6823669538
  P  4.3608513788  5.7227404107  12.8064339804
  P  2.7263470654  0.7282876635  12.8265368250
  P  0.3711210654  3.7827789711  15.7327625191
  O  1.2123972175  8.2083896765  14.4324666345
  O  3.6291095674  6.3739464118  14.0825148926
  O  3.4680363025  1.3721842999  14.1040811640
  O  1.1093829690  3.1220214576  14.4584450994
  O  1.3596349964  8.0562950321  16.8462117767
  O  3.7923299398  6.5526723243  11.6289133512
  O  3.3003412998  1.5461970904  11.6460088470
  O  0.9531584297  2.9604712745  16.9108361401
  O  0.9136186619  5.2448104556  15.6944378539
  O  3.2629172638  9.4276308131  12.8023934589
  O  3.5446225228  3.7235095668  15.6485464104
  O  1.1879123926  0.7662984500  12.9170618069
  O  1.1354873087  5.7832819711  12.8891042947
  O  3.7965946052  4.2707728229  12.8307748471
  O  1.4392974591  0.1846054465  15.7089223203
  O  3.4959570534  8.7876755146  15.5995721346
  P  6.6688818178  8.8478632150  15.7085703241
  P  9.0062189322  5.7263535399  12.7954714383
  P  7.4256001189  0.6746137060  12.8228528278
  P  5.0827169838  3.7652444047  15.7439083900
  O  5.9261601580  8.1877101992  14.4349227766
  O  8.2821359139  6.4005771845  14.0714170689
  O  8.1641303211  1.3374825114  14.0979707039
  O  5.8185662143  3.0992676954  14.4703700672
  O  6.0955409502  8.0201970103  16.8875601711
  O  8.4431397248  6.5703496137  11.6225289213
  O  8.0075057281  1.4968635071  11.6457536727
  O  5.6616365268  2.9307061503  16.9143898325
  O  5.6428606763  5.2203188701  15.7141951003
  O  7.9606510584  9.3709978209  12.8069219014
  O  8.2411397074  3.7054383313  15.6455891229
  O  5.8887324813  0.7351000660  12.9213722499
  O  5.8962744512  5.7866379710  12.8981497475
  O  8.4527730620  4.2716395453  12.8268369551
  O  6.1330998669  0.1509504689  15.7306994353
  O  8.2056512655  8.7885074078  15.6069389931
