&CONTROL 
 calculation = 'scf' 
 restart_mode = 'from_scratch'
 nstep = 1 
 outdir= './OER' 
 pseudo_dir = "~/PSEUDO"
dipfield = .TRUE. 
 tefield = .TRUE. 
 wf_collect = .TRUE. 
 disk_io = 'none' 
 tprnfor = .true.
 / 

 &SYSTEM
ibrav = 0
    degauss = 0.01
    ecutrho = 500
    ecutwfc = 50
    nat = 158
    nspin = 2
    ntyp = 5
    occupations = 'smearing'
    smearing = 'gaussian'
    vdw_corr = 'DFT-D'
    starting_magnetization(1) = 1
    starting_magnetization(2) = 1
    starting_magnetization(3) = 1
    starting_magnetization(4) = 1
    edir = 3
    eamp = 0.0
    emaxpos = 0.75
/

&ELECTRONS
    electron_maxstep = 150
    mixing_beta = 0.1
    startingpot = 'atomic'
    startingwfc = 'atomic+random'
    scf_must_converge = .FALSE.
    mixing_mode = 'local-TF'
/

&IONS
    ion_dynamics = 'bfgs'
/

K_POINTS gamma

ATOMIC_SPECIES
  Ni   58.693   Ni.pbe-n-rrkjus_psl.1.0.0.UPF
  Mn   54.938   Mn.pbe-spn-rrkjus_psl.0.3.1.UPF
  P    30.973   P.pbe-n-rrkjus_psl.1.0.0.UPF
  O    15.999   O.pbe-rrkjus.UPF
  H    1.0079   H.pbe-rrkjus.UPF

CELL_PARAMETERS angstrom
9.4474829294  0.0000000000  0.0000000000
  0.0305814238  10.2221506046  0.0000000000
  0.0000000000  0.0000000000  32.1655934253

ATOMIC_POSITIONS {angstrom} 
  Ni      2.3129220139      7.8972772973      1.1497545064
  Ni      4.6490610887      7.3047442111      4.1936894858
  Mn      0.1067761731      2.7576721292      1.0963917518
  Ni      2.4432273613      2.1432234008      4.1735462030
  Ni      9.4662145937     10.1142894701      2.6789495920
  Ni      2.3789698370      5.0440683314      2.6674809569
  Ni      6.9920813749      7.8878789031      1.1579062906
  Mn      9.3406898946      7.2753604651      4.2439743133
  Mn      4.8308954384      2.7819693590      1.0948616820
  Ni      7.1431070376      2.1387615578      4.1784309036
  Ni      4.7326084235     10.1203689183      2.6666558403
  Ni      7.0827571848      5.0417436272      2.6777908576
   P      2.0291231354      9.1516784506      4.1405151098
   P      4.3528117572      6.0859892383      1.1954218952
   P      2.7239152584      0.8629939071      1.1958169163
   P      0.3863836581      3.9885723945      4.1143414694
   O      1.3045687173      8.5101215718      2.8561821687
   O      3.6065187097      6.7206402390      2.4795955832
   O      3.4373384109      1.5196724811      2.4794137179
   O      1.1408481055      3.3498458294      2.8542917983
   O      1.4664322300      8.3114829540      5.3143601271
   O      3.8005527481      6.9136385589      0.0100000000
   O      3.2639580632      1.7231876877      0.0248805985
   O      0.9608270792      3.1601630306      5.2857321047
   O      0.9164761464      5.4518725145      4.1063056435
   O      3.3388968874      9.6399059777      1.2004979284
   O      3.5692814975      3.9418697628      4.0255988330
   O      1.1867656938      0.9013490877      1.2963392800
   O      1.1640886725      6.1242569315      1.3086390258
   O      3.8059495922      4.6272192177      1.2184590528
   O      1.4275620920      0.3831464040      4.1285299573
   O      3.5678946412      9.0925343002      4.0512308031
   P      6.6933239351      9.1471654079      4.1517445120
   P      9.0725636199      6.0555136571      1.2210574959
   P      7.4405864459      0.8500557470      1.2037018964
   P      5.1065078778      4.0365506749      4.1233117458
   O      5.9741939775      8.4816003245      2.8688888472
   O      8.3228984798      6.7000803377      2.4819585481
   O      8.1541738250      1.4995408786      2.4908163165
   O      5.8598774446      3.3806679847      2.8665919296
   O      6.1400698649      8.2878954395      5.3197941026
   O      8.4934485675      6.8810405934      0.0514189482
   O      7.9815748019      1.7063608711      0.0289643815
   O      5.6903095574      3.2051642990      5.2910339913
   O      5.6309097860      5.5042271625      4.1061970179
   O      8.0445535812      9.6215199712      1.2108195277
   O      8.2945500610      3.9196666124      4.0255568094
   O      5.9057721073      0.9042847376      1.3008190970
   O      5.8930128638      6.1234667375      1.3022125571
   O      8.5386786436      4.5946304697      1.2351206656
   O      6.1018811736      0.3803315516      4.1360884007
   O      8.2310575070      9.1028906560      4.0488489665
  Ni      2.2865932276      7.7185113740      7.0776541678
  Ni      4.6227323024      7.1259782878     10.1215891471
  Mn      0.0804473868      2.5789062059      7.0242914132
  Ni      2.4168985750      1.9644574775     10.1014458644
  Ni      9.4398858074      9.9355235468      8.6068492533
  Ni      2.3526410507      4.8653024081      8.5953806183
  Ni      6.9657525885      7.7091129798      7.0858059520
  Mn      9.3143611083      7.0965945418     10.1718739746
  Mn      4.8045666521      2.6032034357      7.0227613433
  Ni      7.1167782512      1.9599956345     10.1063305650
  Ni      4.7062796372      9.9416029950      8.5945555017
  Ni      7.0564283985      4.8629777039      8.6056905189
   P      2.0027943491      8.9729125273     10.0684147711
   P      4.3264829709      5.9072233150      7.1233215566
   P      2.6975864721      0.6842279838      7.1237165776
   P      0.3600548718      3.8098064712     10.0422411307
   O      1.2782399310      8.3313556485      8.7840818301
   O      3.5801899233      6.5418743157      8.4074952445
   O      3.4110096246      1.3409065578      8.4073133792
   O      1.1145193192      3.1710799061      8.7821914596
   O      1.4401034437      8.1327170307     11.2422597885
   O      3.7742239617      6.7348726356      5.9378996613
   O      3.2376292769      1.5444217644      5.9527802599
   O      0.9344982929      2.9813971073     11.2136317660
   O      0.8901473601      5.2731065912     10.0342053048
   O      3.3125681011      9.4611400544      7.1283975898
   O      3.5429527111      3.7631038396      9.9534984944
   O      1.1604369075      0.7225831644      7.2242389413
   O      1.1377598861      5.9454910082      7.2365386871
   O      3.7796208059      4.4484532944      7.1463587142
   O      1.4012333057      0.2043804807     10.0564296187
   O      3.5415658549      8.9137683769      9.9791304644
   P      6.6669951488      8.9683994847     10.0796441734
   P      9.0462348336      5.8767477338      7.1489571572
   P      7.4142576596      0.6712898237      7.1316015577
   P      5.0801790915      3.8577847517     10.0512114071
   O      5.9478651911      8.3028344013      8.7967885085
   O      8.2965696935      6.5213144144      8.4098582094
   O      8.1278450387      1.3207749553      8.4187159778
   O      5.8335486583      3.2019020614      8.7944915909
   O      6.1137410786      8.1091295162     11.2476937640
   O      8.4671197812      6.7022746701      5.9793186095
   O      7.9552460155      1.5275949478      5.9568640428
   O      5.6639807711      3.0263983758     11.2189336526
   O      5.6045809997      5.3254612392     10.0340966792
   O      8.0182247949      9.4427540480      7.1387191890
   O      8.2682212747      3.7409006891      9.9534564707
   O      5.8794433210      0.7255188143      7.2287187584
   O      5.8666840775      5.9447008142      7.2301122184
   O      8.5123498573      4.4158645464      7.1630203269
   O      6.0755523873      0.2015656283     10.0639880620
   O      8.2047287207      8.9241247327      9.9767486279
  Ni      2.2897199808      7.5526572568     13.0000712702
  Ni      4.7180478153      6.9829284848     15.8763668856
  Mn      0.0845529447      2.4391060534     12.9919487229
  Ni      2.4140237597      1.7718564870     16.2000149905
  Ni      9.4550115190      9.7680666180     14.5332370375
  Ni      2.3242935806      4.6830410027     14.5874833914
  Ni      6.9532818446      7.5591764655     13.0130063341
  Mn      9.4226955676      6.9199276848     16.0400597965
  Mn      4.7876105553      2.4478985644     12.9810778061
  Ni      7.0180441417      1.8446325897     15.9076189017
  Ni      4.7121504478      9.8079483477     14.5594947829
  Ni      7.0168520912      4.6918550104     14.5727343513
   P      2.0140800899      8.7464159748     15.9819167205
   P      4.3072197672      5.7108897561     13.0431874749
   P      2.6933652888      0.5466460510     13.0582093495
   P      0.3053065831      3.5777873507     16.0440692623
   O      1.2726429248      8.1626938068     14.6362820390
   O      3.5644240240      6.3467276149     14.3250463610
   O      3.3953286982      1.2154745702     14.3273929917
   O      1.0485170948      3.0825419496     14.6959678875
   O      1.4548574470      7.8082213189     17.0649134817
   O      3.7522505829      6.5421573860     11.8587874384
   O      3.2325159452      1.3881869777     11.8681323760
   O      0.8487723334      2.6564042711     17.1283182884
   O      0.8059817660      5.0741631882     16.0986824679
   O      3.2983125326      9.3190489268     13.0644840577
   O      3.5016927022      3.6445542821     15.9534813745
   O      1.1495383763      0.5998331523     13.1471410347
   O      1.1274965948      5.7426351624     13.1957825626
   O      3.7539027253      4.2550986056     13.0724938280
   O      1.4057568838     -0.0288220048     15.9874410400
   O      3.5540095174      8.6823076128     15.8571329425
   P      6.7074584957      8.7636853298     16.0323509719
   P      9.0374506884      5.6854152933     13.1036474399
   P      7.4165764978      0.5271356884     13.0507691079
   P      5.0464526258      3.6934731818     16.0795812664
   O      5.9796281272      8.2069567078     14.6610955350
   O      8.3120720792      6.3040276956     14.3998827862
   O      8.1360033903      1.1683440679     14.3353330280
   O      5.7669970682      3.0880410780     14.7363932779
   O      6.1404549612      7.8364291277     17.0983479036
   O      8.4699732557      6.5496297560     11.9536400944
   O      7.9577425837      1.3885003741     11.8778539820
   O      5.6439999890      2.8064685704     17.1727847979
   O      5.5770653256      5.1708788588     16.0331967877
   O      8.0095228633      9.2976000284     13.0476561085
   O      8.2033040435      3.5523284008     15.8982843657
   O      5.8806479019      0.6082005389     13.1695539019
   O      5.8460295510      5.7689832147     13.1684650347
   O      8.4755188246      4.2342586530     13.0768385794
   O      6.1790449994      0.0247825330     16.0382916316
   O      8.2607287278      8.6839387938     15.9107841519
   O      3.5368857925      0.9739104199     17.3808593937
   H      4.3208153734      1.5449403664     17.6178438220
