&CONTROL 
 calculation = 'scf' 
 restart_mode = 'from_scratch'
 nstep = 1 
 outdir= './OER' 
 pseudo_dir = "~/PSEUDO"
dipfield = .TRUE. 
 tefield = .TRUE. 
 wf_collect = .TRUE. 
 disk_io = 'none' 
 tprnfor = .true.
 / 

 &SYSTEM
ibrav = 0
    degauss = 0.01
    ecutrho = 500
    ecutwfc = 50
    nat = 158
    nspin = 2
    ntyp = 5
    occupations = 'smearing'
    smearing = 'gaussian'
    vdw_corr = 'DFT-D'
    starting_magnetization(1) = 1
    starting_magnetization(2) = 1
    starting_magnetization(3) = 1
    starting_magnetization(4) = 1
    edir = 3
    eamp = 0.0
    emaxpos = 0.75
/
&ELECTRONS
    electron_maxstep = 150
    mixing_beta = 0.1
    startingpot = 'atomic'
    startingwfc = 'atomic+random'
    scf_must_converge = .FALSE.
    mixing_mode = 'local-TF'
/
&IONS
    ion_dynamics = 'bfgs'
/
K_POINTS gamma
ATOMIC_SPECIES
  Ni   58.693   Ni.pbe-n-rrkjus_psl.1.0.0.UPF
  Mn   54.938   Mn.pbe-spn-rrkjus_psl.0.3.1.UPF
  P    30.973   P.pbe-n-rrkjus_psl.1.0.0.UPF
  O    15.999   O.pbe-rrkjus.UPF
  H    1.0079   H.pbe-rrkjus.UPF

CELL_PARAMETERS angstrom
9.2112444241  0.0000000000  0.0000000000
  -0.0129335416  10.1848326152  0.0000000000
  0.0000000000  0.0000000000  32.4277113867

ATOMIC_POSITIONS {angstrom} 
  Ni      2.2173742436      7.9941314684     16.3853930330
  Mn      4.4665784770      7.3033229591     13.1709006968
  Ni     -0.0142434500      2.8009147164     16.0530348892
  Ni      2.3737263714      2.2465157990     13.1765764871
  Ni      4.5688593929     10.2057231020     14.7101678931
  Ni      2.3115056555      5.0937387269     14.7517936619
   P      1.9242731695      9.2241121808     13.2121702900
   P      4.2600125517      6.1413122846     16.2259239050
   P      2.6440961424      1.0688712724     16.2190055950
   P      0.3770860143      4.0802148272     13.1795659416
   O      1.2461816036      8.5392421916     14.4843303702
   O      3.5373099956      6.7192586747     14.8937693227
   O      3.3637787613      1.6501819846     14.8400288110
   O      1.0973794691      3.4325281545     14.4650367765
   O      1.3889528377      8.4012290646     12.0114300293
   O      3.7327858378      7.0448044663     17.3334513498
   O      3.1860055536      2.0171838952     17.2802224228
   O      0.9299869760      3.2707668177     11.9867609322
   O      0.9173627300      5.5426720401     13.2315410255
   O      3.1950128864      9.7968916491     16.1859231434
   O      3.4443566898      4.0497847920     13.2947512724
   O      1.1047630406      1.1095314446     16.0579470563
   O      1.1787398080      6.1196589922     16.1545146874
   O      3.7511993302      4.6536937989     16.2060909991
   O      1.3758811530      0.4894459944     13.2426707202
   O      3.4644428910      9.1586630158     13.2950279470
  Ni      2.2231694467      7.8387150113     10.2441428465
  Mn      4.5291854344      7.1731699804      7.1554177006
  Ni      0.0413377460      2.7013109415     10.2603882940
  Ni      2.3609701921      2.0961861161      7.1899515213
  Ni      4.5771780352     10.0853977451      8.7130228178
  Ni      2.2920501783      4.9198282349      8.7227910824
   P      1.9122808731      9.1033963050      7.2173607613
   P      4.2159980376      5.9505261806     10.2027763372
   P      2.6546169098      0.8591972239     10.2283303116
   P      0.3619242519      3.9045525432      7.2190763494
   O      1.2036838524      8.4272438680      8.5052521184
   O      3.4908594272      6.6070736456      8.9170848147
   O      3.3665734522      1.5317059583      8.9373367535
   O      1.0719826629      3.2671856475      8.5242565260
   O      1.3843584724      8.2616841471      6.0256206039
   O      3.6610322847      6.7741729017     11.3943375015
   O      3.2083661661      1.6483492612     11.4336134640
   O      0.8980336260      3.1100721707      6.0140979227
   O      0.9070304683      5.3599334065      7.2594010652
   O      3.1870699093      9.5847542147     10.1494340391
   O      3.4373778089      3.8725200731      7.3188449707
   O      1.1269987174      0.9116358839     10.1328903704
   O      1.1379920588      6.0211801669     10.1144969906
   O      3.6884944322      4.4881192592     10.1758874244
   O      1.3600796965      0.3668542279      7.2516081594
   O      3.4345382286      9.0669591473      7.3057765327
  Ni      2.2162947113      7.7473428066      4.2400449238
  Mn      4.5223106990      7.0817977756      1.1513197779
  Ni      0.0344630106      2.6099387368      4.2562903713
  Ni      2.3540954567      2.0048139114      1.1858535986
  Ni      4.5703032998      9.9940255404      2.7089248952
  Ni      2.2851754429      4.8284560302      2.7186931597
   P      1.9054061377      9.0120241003      1.2132628386
   P      4.2091233022      5.8591539759      4.1986784145
   P      2.6477421744      0.7678250192      4.2242323889
   P      0.3550495165      3.8131803385      1.2149784268
   O      1.1968091169      8.3358716633      2.5011541957
   O      3.4839846918      6.5157014409      2.9129868921
   O      3.3596987168      1.4403337535      2.9332388308
   O      1.0651079275      3.1758134427      2.5201586033
   O      1.3774837370      8.1703119424      0.0215226813
   O      3.6541575493      6.6828006969      5.3902395788
   O      3.2014914307      1.5569770565      5.4295155413
   O      0.8911588906      3.0186999659      0.0100000000
   O      0.9001557329      5.2685612018      1.2553031425
   O      3.1801951739      9.4933820100      4.1453361164
   O      3.4305030735      3.7811478683      1.3147470481
   O      1.1201239820      0.8202636792      4.1287924477
   O      1.1311173233      5.9298079622      4.1103990679
   O      3.6816196968      4.3967470545      4.1717895017
   O      1.3532049611      0.2754820232      1.2475102367
   O      3.4276634932      8.9755869426      1.3016786101
  Ni      6.9116092030      7.9143874146     16.0861783405
  Mn      9.0942351851      7.3077185924     13.1678086969
  Ni      4.5868739051      2.8397105382     16.0513476912
  Ni      6.9807949161      2.2405839021     13.1756799855
  Ni      9.1917874922     10.1781463403     14.7432680349
  Ni      6.9247258207      5.0686429382     14.7215244051
   P      6.5272389189      9.2339810711     13.1935852529
   P      8.8507043058      6.0676810187     16.2755056675
   P      7.2337613773      1.0348266140     16.2261511979
   P      4.9764606352      4.0865324994     13.1720418908
   O      5.8364745699      8.5662045486     14.4775077486
   O      8.1567539157      6.6951557348     14.9274001250
   O      7.9571143619      1.6005163366     14.8519077176
   O      5.6997811297      3.4326975744     14.4570224818
   O      5.9871279105      8.3955160150     12.0096299652
   O      8.2496799791      6.9433660939     17.3732222783
   O      7.8060730496      1.9525986938     17.2953220910
   O      5.5331607174      3.2697009843     11.9857285124
   O      5.5291195096      5.5465695528     13.2149200509
   O      7.7236687055      9.7349928990     16.2210591178
   O      8.0544456912      4.0289064347     13.2981999507
   O      5.6928772327      1.0995207264     16.0821359034
   O      5.8040097740      6.1785692823     16.0738146260
   O      8.3243670600      4.5925431813     16.1983018860
   O      5.9765169087      0.4957414181     13.2197378736
   O      8.0621354007      9.1510156176     13.3093568170
  Ni      6.8287916588      7.8387150113     10.2441428465
  Mn      9.1348076465      7.1731699804      7.1554177006
  Ni      4.6469599580      2.7013109415     10.2603882940
  Ni      6.9665924042      2.0961861161      7.1899515213
  Ni      9.1828002472     10.0853977451      8.7130228178
  Ni      6.8976723903      4.9198282349      8.7227910824
   P      6.5179030852      9.1033963050      7.2173607613
   P      8.8216202497      5.9505261806     10.2027763372
   P      7.2602391219      0.8591972239     10.2283303116
   P      4.9675464640      3.9045525432      7.2190763494
   O      5.8093060644      8.4272438680      8.5052521184
   O      8.0964816393      6.6070736456      8.9170848147
   O      7.9721956643      1.5317059583      8.9373367535
   O      5.6776048750      3.2671856475      8.5242565260
   O      5.9899806845      8.2616841471      6.0256206039
   O      8.2666544968      6.7741729017     11.3943375015
   O      7.8139883782      1.6483492612     11.4336134640
   O      5.5036558380      3.1100721707      6.0140979227
   O      5.5126526804      5.3599334065      7.2594010652
   O      7.7926921213      9.5847542147     10.1494340391
   O      8.0430000209      3.8725200731      7.3188449707
   O      5.7326209294      0.9116358839     10.1328903704
   O      5.7436142708      6.0211801669     10.1144969906
   O      8.2941166443      4.4881192592     10.1758874244
   O      5.9657019086      0.3668542279      7.2516081594
   O      8.0401604407      9.0669591473      7.3057765327
  Ni      6.8219169233      7.7473428066      4.2400449238
  Mn      9.1279329110      7.0817977756      1.1513197779
  Ni      4.6400852226      2.6099387368      4.2562903713
  Ni      6.9597176688      2.0048139114      1.1858535986
  Ni      9.1759255118      9.9940255404      2.7089248952
  Ni      6.8907976549      4.8284560302      2.7186931597
   P      6.5110283498      9.0120241003      1.2132628386
   P      8.8147455142      5.8591539759      4.1986784145
   P      7.2533643865      0.7678250192      4.2242323889
   P      4.9606717285      3.8131803385      1.2149784268
   O      5.8024313290      8.3358716633      2.5011541957
   O      8.0896069039      6.5157014409      2.9129868921
   O      7.9653209289      1.4403337535      2.9332388308
   O      5.6707301395      3.1758134427      2.5201586033
   O      5.9831059490      8.1703119424      0.0215226813
   O      8.2597797614      6.6828006969      5.3902395788
   O      7.8071136427      1.5569770565      5.4295155413
   O      5.4967811026      3.0186999659      0.0100000000
   O      5.5057779450      5.2685612018      1.2553031425
   O      7.7858173859      9.4933820100      4.1453361164
   O      8.0361252855      3.7811478683      1.3147470481
   O      5.7257461940      0.8202636792      4.1287924477
   O      5.7367395354      5.9298079622      4.1103990679
   O      8.2872419088      4.3967470545      4.1717895017
   O      5.9588271731      0.2754820232      1.2475102367
   O      8.0332857052      8.9755869426      1.3016786101
   O     10.3073780746      8.7828753087     17.5811971285
   H      9.5558383052      8.1995721290     17.8300482794
