&CONTROL
    calculation   = "relax"
    outdir        = "./tmp"
    prefix        = "100"
    pseudo_dir    = "/home/manuruzzahran/pseudo"
    dipfield      = .TRUE.
    tefield       = .TRUE.
    max_seconds   = 86000
/

&SYSTEM
    degauss                   = 0.01
    ecutrho                   = 500
    ecutwfc                   = 50
    ibrav                     = 0
    nat                       = 156
    ntyp                      = 3
    occupations               = "smearing"
    smearing                  = "gaussian"
    nspin                     = 2
    starting_magnetization(1) = 1
    starting_magnetization(2) = 1
    starting_magnetization(3) = 1
    edir                      = 3
    vdw_corr                  = 'DFT-D'
    eamp                      = 0.0
    emaxpos                   = 0.75
/

&ELECTRONS
    electron_maxstep = 150
    mixing_beta      = 0.3
    startingpot      = "atomic"
    startingwfc      = "atomic+random"
    scf_must_converge= .FALSE.
/

&IONS
    ion_dynamics = "bfgs"
/

K_POINTS {gamma}

ATOMIC_SPECIES
Ni   58.69340  Ni.pbe-n-rrkjus_psl.1.0.0.UPF
P    30.97376  P.pbe-n-rrkjus_psl.1.0.0.UPF
O    15.99940  O.pbe-rrkjus.UPF

CELL_PARAMETERS {angstrom}
     9.3786776616199994    0.0000000000000000    0.0000000000000000
     0.0000000000000000   10.1149396091007802    0.0000000000000000
     0.0000000000000000    0.0000000000000000   31.8541633382378642

ATOMIC_POSITIONS {angstrom}
Ni  2.2752103275000000  7.7744991153000003  1.1559810358000000   0 0 0
Ni  4.6198797432000003  7.2051492681999996  4.1240823220999987   0 0 0
Ni  0.0694590881000000  2.7170293120000002  1.1559810366000001   0 0 0
Ni  2.4141285038000007  2.1476794648999999  4.1240823228999988   0 0 0
Ni  0.0000000000000000 10.0185590959000006  2.6400316801999999   0 0 0
Ni  2.3446694156999999  4.9610892901000003  2.6400316793999994   0 0 0
P   1.9685982242000000  9.0252355942999998  4.1008002580999987   0 0 0
P   4.3132676399000003  5.9544127891000000  1.1792630999000000   0 0 0
P   2.7207406072000002  0.8969429859000001  1.1792631007999999   0 0 0
P   0.3760711915000001  3.9677657910000002  4.1008002587999988   0 0 0
O   1.2316913872999999  8.3674752862999995  2.8244644690999996   0 0 0
O   3.5763608030000000  6.6121730970000003  2.4555988888000000   0 0 0
O   3.4576474441000000  1.5547032937000000  2.4555988896999996   0 0 0
O   1.1129780283999999  3.3100054831000003  2.8244644699000001   0 0 0
O   1.3794229916000000  8.1964259051999999  5.2700633578999989   0 0 0
O   3.7240924073000006  6.7832224780999999  0.0100000000000000   0 0 0
O   3.3099158397999999  1.7257526749000001  0.0100000008000000   0 0 0
O   0.9652464240999999  3.1389561018999999  5.2700633587999990   0 0 0
O   0.9220154062000000  5.4266005208000010  4.0688980366000003   0 0 0
O   3.2666848219000002  9.5530478624999997  1.2111653212999998   0 0 0
O   3.5297276115000003  3.9094173676000001  4.0089148719000001   0 0 0
O   1.1850581957999999  0.9552914093000001  1.2711484875999999   0 0 0
O   1.1596112198999999  6.0127612125000001  1.2711484867999998   0 0 0
O   3.7673234252000003  4.4955780592999997  1.2111653222999998   0 0 0
O   1.4226540095000000  0.3691307176000000  4.0688980373999994   0 0 0
O   3.5042806356000002  8.9668871707999998  4.0089148712000000   0 0 0
Ni  2.2752103275000000  7.5817380907000009  6.9530310254999987   0 0 0
Ni  4.6198797432000003  7.0123882436000002  9.9211323117999992   0 0 0
Ni  0.0694590881000000  2.5242682875000000  6.9530310262999988   0 0 0
Ni  2.4141285038000007  1.9549184404000000  9.9211323125999975   0 0 0
Ni  0.0000000000000000  9.8257980712999995  8.4370816698999995   0 0 0
Ni  2.3446694156999999  4.7683282656000001  8.4370816690999995   0 0 0
P   1.9685982242000000  8.8324745698000005  9.8978502477999974   0 0 0
P   4.3132676399000003  5.7616517646000007  6.9763130895999987   0 0 0
P   2.7207406072000002  0.7041819613000000  6.9763130905999997   0 0 0
P   0.3760711915000001  3.7750047664999999  9.8978502484999993   0 0 0
O   1.2316913872999999  8.1747142618000002  8.6215144588000001   0 0 0
O   3.5763608030000000  6.4194120725000010  8.2526488786000005   0 0 0
O   3.4576474441000000  1.3619422692000001  8.2526488794000006   0 0 0
O   1.1129780283999999  3.1172444586000001  8.6215144596000002   0 0 0
O   1.3794229916000000  8.0036648807000006 11.0671133475999977   0 0 0
O   3.7240924073000006  6.5904614535999997  5.8070499897000003   0 0 0
O   3.3099158397999999  1.5329916503000001  5.8070499906000004   0 0 0
O   0.9652464240999999  2.9461950774000001 11.0671133484999995   0 0 0
O   0.9220154062000000  5.2338394962999999  9.8659480263999999   0 0 0
O   3.2666848219000002  9.3602868380000004  7.0082153109999989   0 0 0
O   3.5297276115000003  3.7166563430000004  9.8059648615999979   0 0 0
O   1.1850581957999999  0.7625303847000000  7.0681984774000002   0 0 0
O   1.1596112198999999  5.8200001879999999  7.0681984765000001   0 0 0
O   3.7673234252000003  4.3028170348000003  7.0082153119999990   0 0 0
O   1.4226540095000000  0.1763696930000000  9.8659480271000000   0 0 0
O   3.5042806356000002  8.7741261463000004  9.8059648608999979   0 0 0
Ni  2.2694232254000002  7.4054679659999998 12.7623818429000000
Ni  4.7167836303000001  6.8595303313000002 15.6087181392999987
Ni  0.0752478494000000  2.3479784610999999 12.7623982482000002
Ni  2.3172085497000001  1.8020288036000001 15.6087057682999983
Ni  0.0454014497000000  9.6506442637000003 14.2765974451999984
Ni  2.2992662944000002  4.5931569886999997 14.2766009460999985
P   2.0236808416000001  8.6166336158999997 15.7746884906999991
P   4.2862346014000003  5.5689852705000007 12.7797497365999995
P   2.7477603768000001  0.5115037110000000 12.7797572662000007
P   0.3210215608000000  3.5590916057999999 15.7747321882999980
O   1.2784752196000002  8.0427404090000003 14.4138703799999988
O   3.5557647694000005  6.2363976463000013 14.0573407995999986
O   3.4782384436000000  1.1789329713000001 14.0573258887999977
O   1.0661858646000000  2.9852876888000002 14.4138639444999992
O   1.4520943040000001  7.6970064793999997 16.8435550758999995
O   3.7089042139000004  6.3978372450999998 11.6049942211999983
O   3.3251115489999998  1.3403552319000001 11.6049849203999997
O   0.8925365105000002  2.6395567294000006 16.8434943885999964
O   0.8440954857000001  5.0376968464000003 15.7575502458999992
O   3.2984532136000002  9.1720891883999993 12.8194262604999984
O   3.4645714670999999  3.5194703273000001 15.6380086871999975
O   1.2119688593000000  0.5840871962999999 12.8928272069999981
O   1.1327081124000000  5.6415594674999996 12.8928309286999987
O   3.7355466810000002  4.1146152962000002 12.8194228487999986
O   1.5005736483000001 10.0951425399999994 15.7575390340999988
O   3.5694077820999999  8.5769365063999992 15.6380181357999977
Ni  6.9645491583099997  7.7744991153000003  1.1559810358000000   0 0 0
Ni  9.3092185740100000  7.2051492681999996  4.1240823220999987   0 0 0
Ni  4.7587979189100000  2.7170293120000002  1.1559810366000001   0 0 0
Ni  7.1034673346100003  2.1476794648999999  4.1240823228999988   0 0 0
Ni  4.6893388308099988 10.0185590959000006  2.6400316801999999   0 0 0
Ni  7.0340082465100000  4.9610892901000003  2.6400316793999994   0 0 0
P   6.6579370550099997  9.0252355942999998  4.1008002580999987   0 0 0
P   9.0026064707099991  5.9544127891000000  1.1792630999000000   0 0 0
P   7.4100794380099995  0.8969429859000001  1.1792631007999999   0 0 0
P   5.0654100223100000  3.9677657910000002  4.1008002587999988   0 0 0
O   5.9210302181100003  8.3674752862999995  2.8244644690999996   0 0 0
O   8.2656996338099997  6.6121730970000003  2.4555988888000000   0 0 0
O   8.1469862749099988  1.5547032937000000  2.4555988896999996   0 0 0
O   5.8023168592100003  3.3100054831000003  2.8244644699000001   0 0 0
O   6.0687618224100000  8.1964259051999999  5.2700633578999989   0 0 0
O   8.4134312381100003  6.7832224780999999  0.0100000000000000   0 0 0
O   7.9992546706100001  1.7257526749000001  0.0100000008000000   0 0 0
O   5.6545852549099997  3.1389561018999999  5.2700633587999990   0 0 0
O   5.6113542370099996  5.4266005208000010  4.0688980366000003   0 0 0
O   7.9560236527099999  9.5530478624999997  1.2111653212999998   0 0 0
O   8.2190664423099999  3.9094173676000001  4.0089148719000001   0 0 0
O   5.8743970266099996  0.9552914093000001  1.2711484875999999   0 0 0
O   5.8489500507100001  6.0127612125000001  1.2711484867999998   0 0 0
O   8.4566622560099987  4.4955780592999997  1.2111653222999998   0 0 0
O   6.1119928403100001  0.3691307176000000  4.0688980373999994   0 0 0
O   8.1936194664099986  8.9668871707999998  4.0089148712000000   0 0 0
Ni  6.9645491583099997  7.5817380907000009  6.9530310254999987   0 0 0
Ni  9.3092185740100000  7.0123882436000002  9.9211323117999992   0 0 0
Ni  4.7587979189100000  2.5242682875000000  6.9530310262999988   0 0 0
Ni  7.1034673346100003  1.9549184404000000  9.9211323125999975   0 0 0
Ni  4.6893388308099988  9.8257980712999995  8.4370816698999995   0 0 0
Ni  7.0340082465100000  4.7683282656000001  8.4370816690999995   0 0 0
P   6.6579370550099997  8.8324745698000005  9.8978502477999974   0 0 0
P   9.0026064707099991  5.7616517646000007  6.9763130895999987   0 0 0
P   7.4100794380099995  0.7041819613000000  6.9763130905999997   0 0 0
P   5.0654100223100000  3.7750047664999999  9.8978502484999993   0 0 0
O   5.9210302181100003  8.1747142618000002  8.6215144588000001   0 0 0
O   8.2656996338099997  6.4194120725000010  8.2526488786000005   0 0 0
O   8.1469862749099988  1.3619422692000001  8.2526488794000006   0 0 0
O   5.8023168592100003  3.1172444586000001  8.6215144596000002   0 0 0
O   6.0687618224100000  8.0036648807000006 11.0671133475999977   0 0 0
O   8.4134312381100003  6.5904614535999997  5.8070499897000003   0 0 0
O   7.9992546706100001  1.5329916503000001  5.8070499906000004   0 0 0
O   5.6545852549099997  2.9461950774000001 11.0671133484999995   0 0 0
O   5.6113542370099996  5.2338394962999999  9.8659480263999999   0 0 0
O   7.9560236527099999  9.3602868380000004  7.0082153109999989   0 0 0
O   8.2190664423099999  3.7166563430000004  9.8059648615999979   0 0 0
O   5.8743970266099996  0.7625303847000000  7.0681984774000002   0 0 0
O   5.8489500507100001  5.8200001879999999  7.0681984765000001   0 0 0
O   8.4566622560099987  4.3028170348000003  7.0082153119999990   0 0 0
O   6.1119928403100001  0.1763696930000000  9.8659480271000000   0 0 0
O   8.1936194664099986  8.7741261463000004  9.8059648608999979   0 0 0
Ni  6.9587620562100003  7.4054679659999998 12.7623818429000000
Ni  0.0274447994900010  6.8595303313000002 15.6087181392999987
Ni  4.7645866802099999  2.3479784610999999 12.7623982482000002
Ni  7.0065473805099998  1.8020288036000001 15.6087057682999983
Ni  4.7347402805100005  9.6506442637000003 14.2765974451999984
Ni  6.9886051252100012  4.5931569886999997 14.2766009460999985
P   6.7130196724100006  8.6166336158999997 15.7746884906999991
P   8.9755734322100000  5.5689852705000007 12.7797497365999995
P   7.4370992076100011  0.5115037110000000 12.7797572662000007
P   5.0103603916100008  3.5590916057999999 15.7747321882999980
O   5.9678140504100003  8.0427404090000003 14.4138703799999988
O   8.2451036002099993  6.2363976463000013 14.0573407995999986
O   8.1675772744100001  1.1789329713000001 14.0573258887999977
O   5.7555246954099992  2.9852876888000002 14.4138639444999992
O   6.1414331348100006  7.6970064793999997 16.8435550758999995
O   8.3982430447100000  6.3978372450999998 11.6049942211999983
O   8.0144503798100004  1.3403552319000001 11.6049849203999997
O   5.5818753413100000  2.6395567294000006 16.8434943885999964
O   5.5334343165100002  5.0376968464000003 15.7575502458999992
O   7.9877920444100008  9.1720891883999993 12.8194262604999984
O   8.1539102979099987  3.5194703273000001 15.6380086871999975
O   5.9013076901100003  0.5840871962999999 12.8928272069999981
O   5.8220469432099993  5.6415594674999996 12.8928309286999987
O   8.4248855118100003  4.1146152962000002 12.8194228487999986
O   6.1899124791099993 10.0951425399999994 15.7575390340999988
O   8.2587466129099987  8.5769365063999992 15.6380181357999977


