&CONTROL 
 calculation = 'scf' 
 restart_mode = 'from_scratch'
 nstep = 1 
 outdir= './OER' 
 pseudo_dir = "~/PSEUDO"
dipfield = .TRUE. 
 tefield = .TRUE. 
 wf_collect = .TRUE. 
 disk_io = 'none' 
 tprnfor = .true.
 / 

 &SYSTEM
ibrav = 0
    degauss = 0.01
    ecutrho = 500
    ecutwfc = 50
    nat = 158
    nspin = 2
    ntyp = 5
    occupations = 'smearing'
    smearing = 'gaussian'
    vdw_corr = 'DFT-D'
    starting_magnetization(1) = 1
    starting_magnetization(2) = 1
    starting_magnetization(3) = 1
    starting_magnetization(4) = 1
    edir = 3
    eamp = 0.0
    emaxpos = 0.75
/

&ELECTRONS
    electron_maxstep = 150
    mixing_beta = 0.1
    startingpot = 'atomic'
    startingwfc = 'atomic+random'
    scf_must_converge = .FALSE.
    mixing_mode = 'local-TF'
/

&IONS
    ion_dynamics = 'bfgs'
/

K_POINTS gamma

ATOMIC_SPECIES
  Ni   58.693   Ni.pbe-n-rrkjus_psl.1.0.0.UPF
  Mn   54.938   Mn.pbe-spn-rrkjus_psl.0.3.1.UPF
  P    30.973   P.pbe-n-rrkjus_psl.1.0.0.UPF
  O    15.999   O.pbe-rrkjus.UPF
  H    1.0079   H.pbe-rrkjus.UPF

CELL_PARAMETERS angstrom
9.2112444241  0.0000000000  0.0000000000
  -0.0129335416  10.1848326152  0.0000000000
  0.0000000000  0.0000000000  32.4277113867

ATOMIC_POSITIONS {angstrom} 
  Ni      2.2300441821      7.9300872161      1.1994706175
  Mn      4.5360601698      7.2645421851      4.2881957634
  Ni      0.0482124814      2.7926831463      1.1832251701
  Ni      2.3678449275      2.1875583209      4.2536619427
  Ni      4.5840527706     10.1767699498      2.7305906462
  Ni      2.2989249137      5.0112004397      2.7208223816
   P      1.9191556085      9.1947685098      4.2262527028
   P      4.2228727730      6.0418983853      1.2408371268
   P      2.6614916452      0.9505694287      1.2152831525
   P      0.3687989873      3.9959247479      4.2245371146
   O      1.2105585878      8.5186160728      2.9383613456
   O      3.4977341627      6.6984458504      2.5265286493
   O      3.3734481877      1.6230781630      2.5062767106
   O      1.0788573983      3.3585578522      2.9193569380
   O      1.3912332078      8.3530563518      5.4179928601
   O      3.6679070201      6.8655451064      0.0492759625
   O      3.2152409015      1.7397214659      0.0100000000
   O      0.9049083614      3.2014443754      5.4295155413
   O      0.9139052037      5.4513056112      4.1842123988
   O      3.1939446447      9.6761264195      1.2941794249
   O      3.4442525443      3.9638922778      4.1247684933
   O      1.1338734528      1.0030080887      1.3107230936
   O      1.1448667942      6.1125523717      1.3291164734
   O      3.6953691676      4.5794914639      1.2677260396
   O      1.3669544319      0.4582264326      4.1920053047
   O      3.4414129640      9.1583313520      4.1378369313
  Ni      2.2231694467      7.8387150113      7.2035685402
  Mn      4.5291854344      7.1731699804     10.2922936861
  Ni      0.0413377460      2.7013109415      7.1873230927
  Ni      2.3609701921      2.0961861161     10.2577598654
  Ni      4.5771780352     10.0853977451      8.7346885689
  Ni      2.2920501783      4.9198282349      8.7249203043
   P      1.9122808731      9.1033963050     10.2303506254
   P      4.2159980376      5.9505261806      7.2449350495
   P      2.6546169098      0.8591972239      7.2193810751
   P      0.3619242519      3.9045525432     10.2286350373
   O      1.2036838524      8.4272438680      8.9424592683
   O      3.4908594272      6.6070736456      8.5306265720
   O      3.3665734522      1.5317059583      8.5103746332
   O      1.0719826629      3.2671856475      8.9234548607
   O      1.3843584724      8.2616841471     11.4220907828
   O      3.6610322847      6.7741729017      6.0533738852
   O      3.2083661661      1.6483492612      6.0140979227
   O      0.8980336260      3.1100721707     11.4336134640
   O      0.9070304683      5.3599334065     10.1883103215
   O      3.1870699093      9.5847542147      7.2982773476
   O      3.4373778089      3.8725200731     10.1288664160
   O      1.1269987174      0.9116358839      7.3148210163
   O      1.1379920588      6.0211801669      7.3332143961
   O      3.6884944322      4.4881192592      7.2718239623
   O      1.3600796965      0.3668542279     10.1961032273
   O      3.4345382286      9.0669591473     10.1419348540
  Ni      2.2215755155      7.6675220983     13.1809025403
  Mn      4.5564993257      7.0366459348     16.2244868272
  Ni      0.0422827641      2.5411684757     13.1621656216
  Ni      2.3786879246      1.8778413741     16.3688345788
  Ni      4.6017241969      9.9165840739     14.7089465534
  Ni      2.2534555892      4.7542327853     14.7252592798
   P      1.9438320975      8.8656011873     16.1848393628
   P      4.1961056108      5.7722670072     13.2235164566
   P      2.6660141280      0.7104156027     13.1966451743
   P      0.3023027365      3.6807193401     16.1761630469
   O      1.2426294867      8.2635102646     14.8359089512
   O      3.4900827354      6.4423349142     14.5015930962
   O      3.3704188880      1.3918927556     14.4696625578
   O      1.0181547809      3.1696036034     14.8227751958
   O      1.4350065274      7.9250598197     17.2828188225
   O      3.6319610699      6.6073341586     12.0490145641
   O      3.2212695292      1.5243368700     11.9994491277
   O      0.8128902607      2.7610332493     17.2756319448
   O      0.8102525256      5.1697913226     16.2442620159
   O      3.2148980878      9.4383146906     13.2357541307
   O      3.3812386027      3.7221620021     16.1387698741
   O      1.1299066519      0.7537596698     13.2854255347
   O      1.1285798626      5.8451131728     13.3230008688
   O      3.6513710636      4.3184729651     13.2455086031
   O      1.3775992103      0.1227027912     16.1676626353
   O      3.4841285316      8.8149302398     16.0626804891
  Ni      6.8356663942      7.9300872161      1.1994706175
  Mn      9.1416823819      7.2645421851      4.2881957634
  Ni      4.6538346934      2.7926831463      1.1832251701
  Ni      6.9734671396      2.1875583209      4.2536619427
  Ni      9.1896749827     10.1767699498      2.7305906462
  Ni      6.9045471258      5.0112004397      2.7208223816
   P      6.5247778206      9.1947685098      4.2262527028
   P      8.8284949851      6.0418983853      1.2408371268
   P      7.2671138573      0.9505694287      1.2152831525
   P      4.9744211994      3.9959247479      4.2245371146
   O      5.8161807998      8.5186160728      2.9383613456
   O      8.1033563747      6.6984458504      2.5265286493
   O      7.9790703997      1.6230781630      2.5062767106
   O      5.6844796104      3.3585578522      2.9193569380
   O      5.9968554199      8.3530563518      5.4179928601
   O      8.2735292322      6.8655451064      0.0492759625
   O      7.8208631136      1.7397214659      0.0100000000
   O      5.5105305734      3.2014443754      5.4295155413
   O      5.5195274158      5.4513056112      4.1842123988
   O      7.7995668567      9.6761264195      1.2941794249
   O      8.0498747564      3.9638922778      4.1247684933
   O      5.7394956648      1.0030080887      1.3107230936
   O      5.7504890062      6.1125523717      1.3291164734
   O      8.3009913797      4.5794914639      1.2677260396
   O      5.9725766440      0.4582264326      4.1920053047
   O      8.0470351761      9.1583313520      4.1378369313
  Ni      6.8287916588      7.8387150113      7.2035685402
  Mn      9.1348076465      7.1731699804     10.2922936861
  Ni      4.6469599580      2.7013109415      7.1873230927
  Ni      6.9665924042      2.0961861161     10.2577598654
  Ni      9.1828002472     10.0853977451      8.7346885689
  Ni      6.8976723903      4.9198282349      8.7249203043
   P      6.5179030852      9.1033963050     10.2303506254
   P      8.8216202497      5.9505261806      7.2449350495
   P      7.2602391219      0.8591972239      7.2193810751
   P      4.9675464640      3.9045525432     10.2286350373
   O      5.8093060644      8.4272438680      8.9424592683
   O      8.0964816393      6.6070736456      8.5306265720
   O      7.9721956643      1.5317059583      8.5103746332
   O      5.6776048750      3.2671856475      8.9234548607
   O      5.9899806845      8.2616841471     11.4220907828
   O      8.2666544968      6.7741729017      6.0533738852
   O      7.8139883782      1.6483492612      6.0140979227
   O      5.5036558380      3.1100721707     11.4336134640
   O      5.5126526804      5.3599334065     10.1883103215
   O      7.7926921213      9.5847542147      7.2982773476
   O      8.0430000209      3.8725200731     10.1288664160
   O      5.7326209294      0.9116358839      7.3148210163
   O      5.7436142708      6.0211801669      7.3332143961
   O      8.2941166443      4.4881192592      7.2718239623
   O      5.9657019086      0.3668542279     10.1961032273
   O      8.0401604407      9.0669591473     10.1419348540
  Ni      6.8257782447      7.6685099185     13.1774667162
  Mn      9.1721115397      7.0008207219     16.2191250967
  Ni      4.6433027323      2.5410827514     13.1729353522
  Ni      6.9011628777      1.9652098515     16.0371946420
  Ni      9.2204236929      9.8926208538     14.6809176434
  Ni      6.8491438752      4.7874111856     14.6982408899
   P      6.5630754696      8.8948155055     16.1883942216
   P      8.8085018889      5.7680764865     13.2163497232
   P      7.2748531772      0.6908200780     13.1624099166
   P      4.9233250975      3.7366760802     16.2342873461
   O      5.8612161805      8.3108816303     14.8405214496
   O      8.0979507571      6.4419665456     14.4948737082
   O      7.9926278310      1.3631873371     14.4409990764
   O      5.6154752832      3.1811105229     14.8580703677
   O      6.0229342569      7.9803886195     17.2909922865
   O      8.2425051967      6.6141380841     12.0494194024
   O      7.8350205301      1.5126100241     11.9779570268
   O      5.5219548919      2.8535298339     17.3225856721
   O      5.4398084469      5.2199396470     16.2394607281
   O      7.8263176368      9.4240093402     13.2084914736
   O      7.9663226438      3.6946625175     16.0546601030
   O      5.7435006695      0.7610309630     13.2925830626
   O      5.7301000403      5.8613573403     13.3199082006
   O      8.2458666610      4.3201513080     13.2223402220
   O      6.0607931768      0.1804035359     16.2014653924
   O      8.1041691483      8.8210227568     16.0895681307
   O      3.3987453361      1.1030922272     17.6567360058
   H      4.1939803116      1.6609094723     17.8841098153
