&CONTROL 
 calculation = 'scf' 
 restart_mode = 'from_scratch'
 nstep = 1 
 outdir= './OER' 
 pseudo_dir = "~/PSEUDO"
dipfield = .TRUE. 
 tefield = .TRUE. 
 wf_collect = .TRUE. 
 disk_io = 'none' 
 tprnfor = .true.
 / 

 &SYSTEM
ibrav = 0
    degauss = 0.01
    ecutrho = 500
    ecutwfc = 50
    nat = 158
    nspin = 2
    ntyp = 5
    occupations = 'smearing'
    smearing = 'gaussian'
    vdw_corr = 'DFT-D'
    starting_magnetization(1) = 1
    starting_magnetization(2) = 1
    starting_magnetization(3) = 1
    starting_magnetization(4) = 1
    edir = 3
    eamp = 0.0
    emaxpos = 0.75
/

&ELECTRONS
    electron_maxstep = 150
    mixing_beta = 0.1
    startingpot = 'atomic'
    startingwfc = 'atomic+random'
    scf_must_converge = .FALSE.
    mixing_mode = 'local-TF'
/

&IONS
    ion_dynamics = 'bfgs'
/

K_POINTS gamma

ATOMIC_SPECIES
  Ni   58.693   Ni.pbe-n-rrkjus_psl.1.0.0.UPF
  Mn   54.938   Mn.pbe-spn-rrkjus_psl.0.3.1.UPF
  P    30.973   P.pbe-n-rrkjus_psl.1.0.0.UPF
  O    15.999   O.pbe-rrkjus.UPF
  H    1.0079   H.pbe-rrkjus.UPF

CELL_PARAMETERS angstrom
9.2112444241  0.0000000000  0.0000000000
  -0.0129335416  10.1848326152  0.0000000000
  0.0000000000  0.0000000000  32.4277113867

ATOMIC_POSITIONS {angstrom} 
  Ni      2.2300441821      7.9300872161      1.1994706175
  Mn      4.5360601698      7.2645421851      4.2881957634
  Ni      0.0482124814      2.7926831463      1.1832251701
  Ni      2.3678449275      2.1875583209      4.2536619427
  Ni      4.5840527706     10.1767699498      2.7305906462
  Ni      2.2989249137      5.0112004397      2.7208223816
   P      1.9191556085      9.1947685098      4.2262527028
   P      4.2228727730      6.0418983853      1.2408371268
   P      2.6614916452      0.9505694287      1.2152831525
   P      0.3687989873      3.9959247479      4.2245371146
   O      1.2105585878      8.5186160728      2.9383613456
   O      3.4977341627      6.6984458504      2.5265286493
   O      3.3734481877      1.6230781630      2.5062767106
   O      1.0788573983      3.3585578522      2.9193569380
   O      1.3912332078      8.3530563518      5.4179928601
   O      3.6679070201      6.8655451064      0.0492759625
   O      3.2152409015      1.7397214659      0.0100000000
   O      0.9049083614      3.2014443754      5.4295155413
   O      0.9139052037      5.4513056112      4.1842123988
   O      3.1939446447      9.6761264195      1.2941794249
   O      3.4442525443      3.9638922778      4.1247684933
   O      1.1338734528      1.0030080887      1.3107230936
   O      1.1448667942      6.1125523717      1.3291164734
   O      3.6953691676      4.5794914639      1.2677260396
   O      1.3669544319      0.4582264326      4.1920053047
   O      3.4414129640      9.1583313520      4.1378369313
  Ni      2.2231694467      7.8387150113      7.2035685402
  Mn      4.5291854344      7.1731699804     10.2922936861
  Ni      0.0413377460      2.7013109415      7.1873230927
  Ni      2.3609701921      2.0961861161     10.2577598654
  Ni      4.5771780352     10.0853977451      8.7346885689
  Ni      2.2920501783      4.9198282349      8.7249203043
   P      1.9122808731      9.1033963050     10.2303506254
   P      4.2159980376      5.9505261806      7.2449350495
   P      2.6546169098      0.8591972239      7.2193810751
   P      0.3619242519      3.9045525432     10.2286350373
   O      1.2036838524      8.4272438680      8.9424592683
   O      3.4908594272      6.6070736456      8.5306265720
   O      3.3665734522      1.5317059583      8.5103746332
   O      1.0719826629      3.2671856475      8.9234548607
   O      1.3843584724      8.2616841471     11.4220907828
   O      3.6610322847      6.7741729017      6.0533738852
   O      3.2083661661      1.6483492612      6.0140979227
   O      0.8980336260      3.1100721707     11.4336134640
   O      0.9070304683      5.3599334065     10.1883103215
   O      3.1870699093      9.5847542147      7.2982773476
   O      3.4373778089      3.8725200731     10.1288664160
   O      1.1269987174      0.9116358839      7.3148210163
   O      1.1379920588      6.0211801669      7.3332143961
   O      3.6884944322      4.4881192592      7.2718239623
   O      1.3600796965      0.3668542279     10.1961032273
   O      3.4345382286      9.0669591473     10.1419348540
  Ni      2.2153040347      7.6589569517     13.1820716849
  Mn      4.5627835088      7.0403816799     16.3264628257
  Ni      0.0354794664      2.5389550087     13.1585938756
  Ni      2.2764163724      1.9832847807     16.0280018326
  Ni      4.6017092171      9.8753136028     14.6894349850
  Ni      2.2300540047      4.8081479962     14.7200422088
   P      1.9383916501      8.9175846453     16.1884831563
   P      4.1767555932      5.7805029539     13.2163464542
   P      2.6659730540      0.6846563149     13.1636204417
   P      0.2746715522      3.6964817139     16.2101836112
   O      1.2512931917      8.2948383227     14.8575958945
   O      3.4735675877      6.4706004936     14.4780383390
   O      3.3848050230      1.3550748411     14.4437690241
   O      1.0061288208      3.1844101510     14.8304469932
   O      1.3786977022      8.0520853590     17.3245517559
   O      3.6144491013      6.6036479190     12.0298509737
   O      3.2234519843      1.5147259722     11.9836203309
   O      0.8241106769      2.7633914193     17.2724654999
   O      0.7698268767      5.1841029150     16.2545875830
   O      3.2167993422      9.4170914903     13.2140821924
   O      3.3548303521      3.7096393404     16.0492676553
   O      1.1327382189      0.7471690389     13.2791094715
   O      1.1094705173      5.8667303290     13.3249230433
   O      3.6352492972      4.3242008623     13.2382026716
   O      1.4300957497      0.1977452549     16.1652714423
   O      3.4831590459      8.8449518788     16.1060737052
  Ni      6.8356663942      7.9300872161      1.1994706175
  Mn      9.1416823819      7.2645421851      4.2881957634
  Ni      4.6538346934      2.7926831463      1.1832251701
  Ni      6.9734671396      2.1875583209      4.2536619427
  Ni      9.1896749827     10.1767699498      2.7305906462
  Ni      6.9045471258      5.0112004397      2.7208223816
   P      6.5247778206      9.1947685098      4.2262527028
   P      8.8284949851      6.0418983853      1.2408371268
   P      7.2671138573      0.9505694287      1.2152831525
   P      4.9744211994      3.9959247479      4.2245371146
   O      5.8161807998      8.5186160728      2.9383613456
   O      8.1033563747      6.6984458504      2.5265286493
   O      7.9790703997      1.6230781630      2.5062767106
   O      5.6844796104      3.3585578522      2.9193569380
   O      5.9968554199      8.3530563518      5.4179928601
   O      8.2735292322      6.8655451064      0.0492759625
   O      7.8208631136      1.7397214659      0.0100000000
   O      5.5105305734      3.2014443754      5.4295155413
   O      5.5195274158      5.4513056112      4.1842123988
   O      7.7995668567      9.6761264195      1.2941794249
   O      8.0498747564      3.9638922778      4.1247684933
   O      5.7394956648      1.0030080887      1.3107230936
   O      5.7504890062      6.1125523717      1.3291164734
   O      8.3009913797      4.5794914639      1.2677260396
   O      5.9725766440      0.4582264326      4.1920053047
   O      8.0470351761      9.1583313520      4.1378369313
  Ni      6.8287916588      7.8387150113      7.2035685402
  Mn      9.1348076465      7.1731699804     10.2922936861
  Ni      4.6469599580      2.7013109415      7.1873230927
  Ni      6.9665924042      2.0961861161     10.2577598654
  Ni      9.1828002472     10.0853977451      8.7346885689
  Ni      6.8976723903      4.9198282349      8.7249203043
   P      6.5179030852      9.1033963050     10.2303506254
   P      8.8216202497      5.9505261806      7.2449350495
   P      7.2602391219      0.8591972239      7.2193810751
   P      4.9675464640      3.9045525432     10.2286350373
   O      5.8093060644      8.4272438680      8.9424592683
   O      8.0964816393      6.6070736456      8.5306265720
   O      7.9721956643      1.5317059583      8.5103746332
   O      5.6776048750      3.2671856475      8.9234548607
   O      5.9899806845      8.2616841471     11.4220907828
   O      8.2666544968      6.7741729017      6.0533738852
   O      7.8139883782      1.6483492612      6.0140979227
   O      5.5036558380      3.1100721707     11.4336134640
   O      5.5126526804      5.3599334065     10.1883103215
   O      7.7926921213      9.5847542147      7.2982773476
   O      8.0430000209      3.8725200731     10.1288664160
   O      5.7326209294      0.9116358839      7.3148210163
   O      5.7436142708      6.0211801669      7.3332143961
   O      8.2941166443      4.4881192592      7.2718239623
   O      5.9657019086      0.3668542279     10.1961032273
   O      8.0401604407      9.0669591473     10.1419348540
  Ni      6.7879212547      7.6488221205     13.1990931296
  Mn      9.1412436553      7.0210108506     16.2397414406
  Ni      4.6371049159      2.5391577737     13.1598381098
  Ni      6.8580825724      1.9673904085     16.0320996914
  Ni      9.2047481496      9.8974879423     14.6829875548
  Ni      6.8303977643      4.7701770251     14.6698291570
   P      6.5495701588      8.8921252954     16.2424538612
   P      8.7888423049      5.7777516078     13.2121850331
   P      7.2603083841      0.6793784459     13.1678525939
   P      4.8939942288      3.7330335664     16.1930645582
   O      5.8027658783      8.1878945195     14.9584424695
   O      8.0719852469      6.4486117912     14.4826181975
   O      7.9786171377      1.3602307347     14.4422835125
   O      5.6122035313      3.1547606257     14.8226737373
   O      6.0586522531      8.0392380245     17.4040020826
   O      8.2270114123      6.6152328501     12.0391194506
   O      7.8312261815      1.4957699701     11.9836157458
   O      5.4432096718      2.8193688447     17.2736965640
   O      5.4490939504      5.2074173005     16.1335087231
   O      7.7892975434      9.4046247768     13.2385087734
   O      7.9443326652      3.6841924540     16.0593156712
   O      5.7274430323      0.7407062550     13.2804115579
   O      5.7140437366      5.8570937909     13.2917110206
   O      8.2480399465      4.3210434304     13.2193474698
   O      6.0208726483      0.1682436527     16.1578312415
   O      8.0851705875      8.8504433741     16.0797713918
   O      3.5259910040      6.3639801394     17.5738953099
   H      2.7081407584      6.9012907305     17.7521398227
