&control
    calculation = 'relax'
    pseudo_dir = '~/PSEUDO'
    outdir = './tmp'
    nstep = 1000
    tefield = .true.
    dipfield = .true.
/
&SYSTEM
    ibrav = 0
    degauss = 0.01
    ecutrho = 500
    ecutwfc = 50
    nat = 158
    nspin = 2
    ntyp = 5
    occupations = 'smearing'
    smearing = 'gaussian'
    vdw_corr = 'DFT-D'
    starting_magnetization(1) = 1
    starting_magnetization(2) = 1
    starting_magnetization(3) = 1
    starting_magnetization(4) = 1
    edir = 3
    eamp = 0.0
    emaxpos = 0.75
/
&ELECTRONS
    electron_maxstep = 150
    mixing_beta = 0.2
    startingpot = 'atomic'
    startingwfc = 'atomic+random'
    scf_must_converge = .FALSE.
    mixing_mode = 'local-TF'
/
&IONS
    ion_dynamics = 'bfgs'
/
K_POINTS gamma
ATOMIC_SPECIES
  Ni   58.693   Ni.pbe-n-rrkjus_psl.1.0.0.UPF
  Mn   54.938   Mn.pbe-spn-rrkjus_psl.0.3.1.UPF
  P    30.973   P.pbe-n-rrkjus_psl.1.0.0.UPF
  O    15.999   O.pbe-rrkjus.UPF
  H    1.0079   H.pbe-rrkjus.UPF

CELL_PARAMETERS angstrom
9.4474829294  0.0000000000  0.0000000000
  0.0305814238  10.2221506046  0.0000000000
  0.0000000000  0.0000000000  32.1655934253

ATOMIC_POSITIONS angstrom
Ni               2.3965555261        7.8566484232       15.8704025904
Ni               4.6559495233        7.2761917753       12.9933303184
Mn              -0.0135172226        2.7402274628       16.0824905400
Ni               2.4311001426        2.1233177128       13.0151321783
Ni               9.4203183935       10.1135706345       14.5101798776
Ni               2.4172706984        5.0113507820       14.5692363960
Ni               7.1106484219        7.8433517838       15.8841087515
Mn               9.3325120574        7.2395611196       12.9684147470
Mn               4.7050546285        2.7558910624       16.0860751471
Ni               7.1277844159        2.1203577269       13.0116820239
Ni               4.6879485293       10.1110838949       14.5358906999
Ni               7.1323693854        5.0041289723       14.5767912194
P                1.9957576552        9.1471111380       13.0260394633
P                4.4140972089        6.1229693408       16.0291955893
P                2.6585773831        0.8947474951       16.0057951753
P                0.3955573424        3.9814112909       13.1149280099
O                1.2638489568        8.5039161424       14.3074632601
O                3.6644034152        6.6262324357       14.6518895095
O                3.3889354047        1.4833089827       14.6707873917
O                1.1298358507        3.3504321619       14.3928519781
O                1.4354763874        8.3055207832       11.8514137025
O                3.8649506907        7.0657341889       17.0856136230
O                3.1749591222        1.8095696469       17.1159964246
O                0.9425792951        3.1337817819       11.9417809357
O                0.9447296023        5.4353137123       13.0952940963
O                3.2405662916        9.6559163521       16.0192714523
O                3.5854550075        3.9324261584       13.2052092369
O                1.1105258541        0.9376448260       15.8945235475
O                1.2410863353        6.1322898660       15.9115743917
O                3.8933413648        4.6418568120       16.0851286841
O                1.3928352716        0.3763445987       13.0407102561
O                3.5323224013        9.0732384003       13.1396293900
P                6.6657696106        9.1389639276       13.0206046925
P                9.1425281991        6.1038772857       16.0900512555
P                7.3868809690        0.8807238268       15.9952725459
P                5.1243583613        4.0268664912       13.0984071752
O                5.9514415851        8.4644428925       14.3012774105
O                8.3873578585        6.6075609208       14.7253379655
O                8.1053605671        1.4702989946       14.6553961207
O                5.8587017175        3.3725364354       14.3695850749
O                6.1128416903        8.2960098745       11.8414523341
O                8.5820029256        7.0430330735       17.1439438908
O                7.9280290934        1.7897490399       17.1024618063
O                5.6828548591        3.1787625096       11.9266673791
O                5.6745499749        5.4824236074       13.0894410138
O                7.9604122619        9.6383976999       16.0011790443
O                8.3037084171        3.9141875124       13.2205024384
O                5.8409838799        0.9393615235       15.9052137517
O                5.9640872824        6.1272904156       15.8960472671
O                8.6369205116        4.6156275556       16.1356501611
O                6.0746624238        0.3695809007       13.0520517173
O                8.2032187506        9.0727563881       13.1362066811
Ni               2.2865932276        7.7185113740       10.1079392575    0   0   0
Ni               4.6227323024        7.1259782878        7.0640042782    0   0   0
Mn               0.0804473868        2.5789062059       10.1613020121    0   0   0
Ni               2.4168985750        1.9644574775        7.0841475609    0   0   0
Ni               9.4398858074        9.9355235468        8.5787441720    0   0   0
Ni               2.3526410507        4.8653024081        8.5902128070    0   0   0
Ni               6.9657525885        7.7091129798       10.0997874733    0   0   0
Mn               9.3143611083        7.0965945418        7.0137194507    0   0   0
Mn               4.8045666521        2.6032034357       10.1628320820    0   0   0
Ni               7.1167782512        1.9599956345        7.0792628603    0   0   0
Ni               4.7062796372        9.9416029950        8.5910379236    0   0   0
Ni               7.0564283985        4.8629777039        8.5799029064    0   0   0
P                2.0027943491        8.9729125273        7.1171786542    0   0   0
P                4.3264829709        5.9072233150       10.0622718687    0   0   0
P                2.6975864721        0.6842279838       10.0618768477    0   0   0
P                0.3600548718        3.8098064712        7.1433522946    0   0   0
O                1.2782399310        8.3313556485        8.4015115952    0   0   0
O                3.5801899233        6.5418743157        8.7780981808    0   0   0
O                3.4110096246        1.3409065578        8.7782800461    0   0   0
O                1.1145193192        3.1710799061        8.4034019657    0   0   0
O                1.4401034437        8.1327170307        5.9433336368    0   0   0
O                3.7742239617        6.7348726356       11.2476937640    0   0   0
O                3.2376292769        1.5444217644       11.2328131654    0   0   0
O                0.9344982929        2.9813971073        5.9719616593    0   0   0
O                0.8901473601        5.2731065912        7.1513881205    0   0   0
O                3.3125681011        9.4611400544       10.0571958355    0   0   0
O                3.5429527111        3.7631038396        7.2320949309    0   0   0
O                1.1604369075        0.7225831644        9.9613544840    0   0   0
O                1.1377598861        5.9454910082        9.9490547382    0   0   0
O                3.7796208059        4.4484532944       10.0392347111    0   0   0
O                1.4012333057        0.2043804807        7.1291638066    0   0   0
O                3.5415658549        8.9137683769        7.2064629609    0   0   0
P                6.6669951488        8.9683994847        7.1059492519    0   0   0
P                9.0462348336        5.8767477338       10.0366362681    0   0   0
P                7.4142576596        0.6712898237       10.0539918676    0   0   0
P                5.0801790915        3.8577847517        7.1343820182    0   0   0
O                5.9478651911        8.3028344013        8.3888049168    0   0   0
O                8.2965696935        6.5213144144        8.7757352159    0   0   0
O                8.1278450387        1.3207749553        8.7668774475    0   0   0
O                5.8335486583        3.2019020614        8.3911018344    0   0   0
O                6.1137410786        8.1091295162        5.9378996613    0   0   0
O                8.4671197812        6.7022746701       11.2062748158    0   0   0
O                7.9552460155        1.5275949478       11.2287293825    0   0   0
O                5.6639807711        3.0263983758        5.9666597727    0   0   0
O                5.6045809997        5.3254612392        7.1514967461    0   0   0
O                8.0182247949        9.4427540480       10.0468742363    0   0   0
O                8.2682212747        3.7409006891        7.2321369546    0   0   0
O                5.8794433210        0.7255188143        9.9568746669    0   0   0
O                5.8666840775        5.9447008142        9.9554812069    0   0   0
O                8.5123498573        4.4158645464       10.0225730984    0   0   0
O                6.0755523873        0.2015656283        7.1216053633    0   0   0
O                8.2047287207        8.9241247327        7.2088447974    0   0   0
Ni               2.2602644412        7.5397454508        4.1800395962    0   0   0
Ni               4.5964035161        6.9472123645        1.1361046169    0   0   0
Mn               0.0541186005        2.4001402826        4.2334023508    0   0   0
Ni               2.3905697887        1.7856915542        1.1562478996    0   0   0
Ni               9.4135570211        9.7567576235        2.6508445106    0   0   0
Ni               2.3263122643        4.6865364848        2.6623131457    0   0   0
Ni               6.9394238022        7.5303470565        4.1718878120    0   0   0
Mn               9.2880323220        6.9178286185        1.0858197893    0   0   0
Mn               4.7782378658        2.4244375125        4.2349324206    0   0   0
Ni               7.0904494649        1.7812297112        1.1513631990    0   0   0
Ni               4.6799508509        9.7628370717        2.6631382623    0   0   0
Ni               7.0300996122        4.6842117806        2.6520032451    0   0   0
P                1.9764655628        8.7941466040        1.1892789928    0   0   0
P                4.3001541846        5.7284573917        4.1343722074    0   0   0
P                2.6712576858        0.5054620606        4.1339771864    0   0   0
P                0.3337260855        3.6310405479        1.2154526333    0   0   0
O                1.2519111447        8.1525897252        2.4736119339    0   0   0
O                3.5538611370        6.3631083924        2.8501985194    0   0   0
O                3.3846808383        1.1621406345        2.8503803848    0   0   0
O                1.0881905329        2.9923139828        2.4755023044    0   0   0
O                1.4137746574        7.9539511074        0.0154339755    0   0   0
O                3.7478951754        6.5561067123        5.3197941026    0   0   0
O                3.2113004906        1.3656558411        5.3049135041    0   0   0
O                0.9081695066        2.8026311840        0.0440619979    0   0   0
O                0.8638185738        5.0943406679        1.2234884592    0   0   0
O                3.2862393148        9.2823741311        4.1292961742    0   0   0
O                3.5166239248        3.5843379163        1.3041952696    0   0   0
O                1.1341081212        0.5438172412        4.0334548227    0   0   0
O                1.1114310998        5.7667250849        4.0211550768    0   0   0
O                3.7532920196        4.2696873711        4.1113350498    0   0   0
O                1.3749045194        0.0256145574        1.2012641453    0   0   0
O                3.5152370686        8.7350024536        1.2785632995    0   0   0
P                6.6406663624        8.7896335614        1.1780495906    0   0   0
P                9.0199060473        5.6979818105        4.1087366067    0   0   0
P                7.3879288733        0.4925239004        4.1260922063    0   0   0
P                5.0538503052        3.6790188284        1.2064823569    0   0   0
O                5.9215364048        8.1240684780        2.4609052555    0   0   0
O                8.2702409072        6.3425484912        2.8478355546    0   0   0
O                8.1015162524        1.1420090320        2.8389777861    0   0   0
O                5.8072198720        3.0231361382        2.4632021730    0   0   0
O                6.0874122923        7.9303635929        0.0100000000    0   0   0
O                8.4407909948        6.5235087468        5.2783751545    0   0   0
O                7.9289172292        1.3488290245        5.3008297212    0   0   0
O                5.6376519848        2.8476324525        0.0387601113    0   0   0
O                5.5782522134        5.1466953159        1.2235970847    0   0   0
O                7.9918960086        9.2639881247        4.1189745750    0   0   0
O                8.2418924884        3.5621347659        1.3042372932    0   0   0
O                5.8531145347        0.5467528910        4.0289750056    0   0   0
O                5.8403552912        5.7659348909        4.0275815455    0   0   0
O                8.4860210710        4.2370986231        4.0946734371    0   0   0
O                6.0492236010        0.0227997050        1.1937057019    0   0   0
O                8.1783999343        8.7453588095        1.2809451361    0   0   0
O   6.0046761580  3.5424051900  17.6403616800
H   6.7618395660  3.0169693910  17.6116542600
