&CONTROL 
 calculation = 'scf' 
 restart_mode = 'from_scratch'
 nstep = 1 
 outdir= './OER' 
 pseudo_dir = "~/PSEUDO"
dipfield = .TRUE. 
 tefield = .TRUE. 
 wf_collect = .TRUE. 
 disk_io = 'none' 
 tprnfor = .true.
 / 

 &SYSTEM
ibrav = 0
    degauss = 0.01
    ecutrho = 500
    ecutwfc = 50
    nat = 158
    nspin = 2
    ntyp = 5
    occupations = 'smearing'
    smearing = 'gaussian'
    vdw_corr = 'DFT-D'
    starting_magnetization(1) = 1
    starting_magnetization(2) = 1
    starting_magnetization(3) = 1
    starting_magnetization(4) = 1
    edir = 3
    eamp = 0.0
    emaxpos = 0.75
/
&ELECTRONS
    electron_maxstep = 150
    mixing_beta = 0.1
    startingpot = 'atomic'
    startingwfc = 'atomic+random'
    scf_must_converge = .FALSE.
    mixing_mode = 'local-TF'
/
&IONS
    ion_dynamics = 'bfgs'
/
K_POINTS gamma
ATOMIC_SPECIES
  Ni   58.693   Ni.pbe-n-rrkjus_psl.1.0.0.UPF
  Mn   54.938   Mn.pbe-spn-rrkjus_psl.0.3.1.UPF
  P    30.973   P.pbe-n-rrkjus_psl.1.0.0.UPF
  O    15.999   O.pbe-rrkjus.UPF
  H    1.0079   H.pbe-rrkjus.UPF

CELL_PARAMETERS angstrom
9.4474829294  0.0000000000  0.0000000000
  0.0305814238  10.2221506046  0.0000000000
  0.0000000000  0.0000000000  32.1655934253

ATOMIC_POSITIONS {angstrom} 
  Ni      2.2884249060      7.9478406814     16.1882820059
  Ni      4.6669990805      7.2782295760     12.9857871287
  Mn      0.0005878483      2.7223806647     16.0594063585
  Ni      2.4331408422      2.1231431805     13.0117864245
  Ni      9.4490068817     10.0977396630     14.5296200441
  Ni      2.4066877995      5.0425999884     14.5716577028
  Ni      7.0980414690      7.8362470220     15.8876017925
  Mn      9.3455298992      7.2418767789     12.9772754847
  Mn      4.7136112836      2.7860229746     16.0578057830
  Ni      7.1340787117      2.1188862150     13.0081789121
  Ni      4.6974387551     10.1199357950     14.5237462668
  Ni      7.1242977718      5.0072418851     14.5572919384
   P      2.0169863793      9.1241587702     13.0586476968
   P      4.4035558912      6.1411442095     15.9749681539
   P      2.6881904878      0.9324856807     15.9953606525
   P      0.3906607581      3.9845267969     13.1124550846
   O      1.2998193791      8.4821634078     14.3378833336
   O      3.6723374089      6.6241563390     14.6158334526
   O      3.4186924125      1.5223037754     14.6528917933
   O      1.1240870195      3.3710950973     14.3983634384
   O      1.4551336075      8.2834454800     11.8781181693
   O      3.8832872252      7.0820146339     17.0535937887
   O      3.1910416599      1.8767578859     17.0904534623
   O      0.9425596408      3.1296428102     11.9468740860
   O      0.9348545708      5.4407430367     13.0893607131
   O      3.3044731469      9.7128689638     15.9948583858
   O      3.5808628743      3.9519184292     13.1892663119
   O      1.1420549818      0.9798078236     15.8658824547
   O      1.2156247010      6.0927541533     15.9576600912
   O      3.8851613856      4.6572656822     16.0698963929
   O      1.4129988374      0.3570492581     13.0581157131
   O      3.5576212366      9.0716561058     13.1382910055
   P      6.6845022222      9.1324309501     13.0231505492
   P      9.1189027148      6.0552448787     16.0921539520
   P      7.3996961896      0.8802058447     15.9916352888
   P      5.1182575761      4.0342267502     13.0839441641
   O      5.9645693762      8.4636507947     14.2995692987
   O      8.3946716259      6.6042345332     14.7333525927
   O      8.1234349596      1.4581231002     14.6479755074
   O      5.8513552261      3.3843110450     14.3617768161
   O      6.1280776039      8.2921025700     11.8433769394
   O      8.5211037398      6.9503705196     17.1736379199
   O      7.9573624325      1.7930186892     17.0900424991
   O      5.6809157730      3.1698520136     11.9249118424
   O      5.6872083717      5.4827024666     13.0621691080
   O      7.9530844877      9.6318216167     16.0115356672
   O      8.2987776795      3.9129163687     13.2107808830
   O      5.8556507178      0.9663995041     15.9002391942
   O      5.9587724894      6.1317417366     15.8715494748
   O      8.5996953577      4.5714979109     16.1011098573
   O      6.0961597675      0.3640766420     13.0490674302
   O      8.2219034036      9.0567183130     13.1467347920
  Ni      2.2865932276      7.7185113740     10.1079392575
  Ni      4.6227323024      7.1259782878      7.0640042782
  Mn      0.0804473868      2.5789062059     10.1613020121
  Ni      2.4168985750      1.9644574775      7.0841475609
  Ni      9.4398858074      9.9355235468      8.5787441720
  Ni      2.3526410507      4.8653024081      8.5902128070
  Ni      6.9657525885      7.7091129798     10.0997874733
  Mn      9.3143611083      7.0965945418      7.0137194507
  Mn      4.8045666521      2.6032034357     10.1628320820
  Ni      7.1167782512      1.9599956345      7.0792628603
  Ni      4.7062796372      9.9416029950      8.5910379236
  Ni      7.0564283985      4.8629777039      8.5799029064
   P      2.0027943491      8.9729125273      7.1171786542
   P      4.3264829709      5.9072233150     10.0622718687
   P      2.6975864721      0.6842279838     10.0618768477
   P      0.3600548718      3.8098064712      7.1433522946
   O      1.2782399310      8.3313556485      8.4015115952
   O      3.5801899233      6.5418743157      8.7780981808
   O      3.4110096246      1.3409065578      8.7782800461
   O      1.1145193192      3.1710799061      8.4034019657
   O      1.4401034437      8.1327170307      5.9433336368
   O      3.7742239617      6.7348726356     11.2476937640
   O      3.2376292769      1.5444217644     11.2328131654
   O      0.9344982929      2.9813971073      5.9719616593
   O      0.8901473601      5.2731065912      7.1513881205
   O      3.3125681011      9.4611400544     10.0571958355
   O      3.5429527111      3.7631038396      7.2320949309
   O      1.1604369075      0.7225831644      9.9613544840
   O      1.1377598861      5.9454910082      9.9490547382
   O      3.7796208059      4.4484532944     10.0392347111
   O      1.4012333057      0.2043804807      7.1291638066
   O      3.5415658549      8.9137683769      7.2064629609
   P      6.6669951488      8.9683994847      7.1059492519
   P      9.0462348336      5.8767477338     10.0366362681
   P      7.4142576596      0.6712898237     10.0539918676
   P      5.0801790915      3.8577847517      7.1343820182
   O      5.9478651911      8.3028344013      8.3888049168
   O      8.2965696935      6.5213144144      8.7757352159
   O      8.1278450387      1.3207749553      8.7668774475
   O      5.8335486583      3.2019020614      8.3911018344
   O      6.1137410786      8.1091295162      5.9378996613
   O      8.4671197812      6.7022746701     11.2062748158
   O      7.9552460155      1.5275949478     11.2287293825
   O      5.6639807711      3.0263983758      5.9666597727
   O      5.6045809997      5.3254612392      7.1514967461
   O      8.0182247949      9.4427540480     10.0468742363
   O      8.2682212747      3.7409006891      7.2321369546
   O      5.8794433210      0.7255188143      9.9568746669
   O      5.8666840775      5.9447008142      9.9554812069
   O      8.5123498573      4.4158645464     10.0225730984
   O      6.0755523873      0.2015656283      7.1216053633
   O      8.2047287207      8.9241247327      7.2088447974
  Ni      2.2602644412      7.5397454508      4.1800395962
  Ni      4.5964035161      6.9472123645      1.1361046169
  Mn      0.0541186005      2.4001402826      4.2334023508
  Ni      2.3905697887      1.7856915542      1.1562478996
  Ni      9.4135570211      9.7567576235      2.6508445106
  Ni      2.3263122643      4.6865364848      2.6623131457
  Ni      6.9394238022      7.5303470565      4.1718878120
  Mn      9.2880323220      6.9178286185      1.0858197893
  Mn      4.7782378658      2.4244375125      4.2349324206
  Ni      7.0904494649      1.7812297112      1.1513631990
  Ni      4.6799508509      9.7628370717      2.6631382623
  Ni      7.0300996122      4.6842117806      2.6520032451
   P      1.9764655628      8.7941466040      1.1892789928
   P      4.3001541846      5.7284573917      4.1343722074
   P      2.6712576858      0.5054620606      4.1339771864
   P      0.3337260855      3.6310405479      1.2154526333
   O      1.2519111447      8.1525897252      2.4736119339
   O      3.5538611370      6.3631083924      2.8501985194
   O      3.3846808383      1.1621406345      2.8503803848
   O      1.0881905329      2.9923139828      2.4755023044
   O      1.4137746574      7.9539511074      0.0154339755
   O      3.7478951754      6.5561067123      5.3197941026
   O      3.2113004906      1.3656558411      5.3049135041
   O      0.9081695066      2.8026311840      0.0440619979
   O      0.8638185738      5.0943406679      1.2234884592
   O      3.2862393148      9.2823741311      4.1292961742
   O      3.5166239248      3.5843379163      1.3041952696
   O      1.1341081212      0.5438172412      4.0334548227
   O      1.1114310998      5.7667250849      4.0211550768
   O      3.7532920196      4.2696873711      4.1113350498
   O      1.3749045194      0.0256145574      1.2012641453
   O      3.5152370686      8.7350024536      1.2785632995
   P      6.6406663624      8.7896335614      1.1780495906
   P      9.0199060473      5.6979818105      4.1087366067
   P      7.3879288733      0.4925239004      4.1260922063
   P      5.0538503052      3.6790188284      1.2064823569
   O      5.9215364048      8.1240684780      2.4609052555
   O      8.2702409072      6.3425484912      2.8478355546
   O      8.1015162524      1.1420090320      2.8389777861
   O      5.8072198720      3.0231361382      2.4632021730
   O      6.0874122923      7.9303635929      0.0100000000
   O      8.4407909948      6.5235087468      5.2783751545
   O      7.9289172292      1.3488290245      5.3008297212
   O      5.6376519848      2.8476324525      0.0387601113
   O      5.5782522134      5.1466953159      1.2235970847
   O      7.9918960086      9.2639881247      4.1189745750
   O      8.2418924884      3.5621347659      1.3042372932
   O      5.8531145347      0.5467528910      4.0289750056
   O      5.8403552912      5.7659348909      4.0275815455
   O      8.4860210710      4.2370986231      4.0946734371
   O      6.0492236010      0.0227997050      1.1937057019
   O      8.1783999343      8.7453588095      1.2809451361
   O     10.6842389866      8.7040633058     17.4581103922
   H      9.9004969840      8.1413715234     17.6908165213
