&CONTROL 
 calculation = 'scf' 
 restart_mode = 'from_scratch'
 nstep = 1 
 outdir= './OER' 
 pseudo_dir = "~/PSEUDO"
dipfield = .TRUE. 
 tefield = .TRUE. 
 wf_collect = .TRUE. 
 disk_io = 'none' 
 tprnfor = .true.
 / 

 &SYSTEM
ibrav = 0
    degauss = 0.01
    ecutrho = 500
    ecutwfc = 50
    nat = 158
    nspin = 2
    ntyp = 5
    occupations = 'smearing'
    smearing = 'gaussian'
    vdw_corr = 'DFT-D'
    starting_magnetization(1) = 1
    starting_magnetization(2) = 1
    starting_magnetization(3) = 1
    starting_magnetization(4) = 1
    edir = 3
    eamp = 0.0
    emaxpos = 0.75
/

&ELECTRONS
    electron_maxstep = 300
    mixing_beta = 0.2
    startingpot = 'atomic'
    startingwfc = 'atomic+random'
    scf_must_converge = .FALSE.
    mixing_mode = 'local-TF'
/

&IONS
    ion_dynamics = 'bfgs'
/

K_POINTS gamma

ATOMIC_SPECIES
  Ni   58.693   Ni.pbe-n-rrkjus_psl.1.0.0.UPF
  Mn   54.938   Mn.pbe-spn-rrkjus_psl.0.3.1.UPF
  P    30.973   P.pbe-n-rrkjus_psl.1.0.0.UPF
  O    15.999   O.pbe-rrkjus.UPF
  H    1.0079   H.pbe-rrkjus.UPF

CELL_PARAMETERS angstrom
9.2112444241  0.0000000000  0.0000000000
  -0.0129335416  10.1848326152  0.0000000000
  0.0000000000  0.0000000000  32.4277113867

ATOMIC_POSITIONS {angstrom} 
  Ni      2.2300441821      7.9300872161      1.1994706175
  Mn      4.5360601698      7.2645421851      4.2881957634
  Ni      0.0482124814      2.7926831463      1.1832251701
  Ni      2.3678449275      2.1875583209      4.2536619427
  Ni      4.5840527706     10.1767699498      2.7305906462
  Ni      2.2989249137      5.0112004397      2.7208223816
   P      1.9191556085      9.1947685098      4.2262527028
   P      4.2228727730      6.0418983853      1.2408371268
   P      2.6614916452      0.9505694287      1.2152831525
   P      0.3687989873      3.9959247479      4.2245371146
   O      1.2105585878      8.5186160728      2.9383613456
   O      3.4977341627      6.6984458504      2.5265286493
   O      3.3734481877      1.6230781630      2.5062767106
   O      1.0788573983      3.3585578522      2.9193569380
   O      1.3912332078      8.3530563518      5.4179928601
   O      3.6679070201      6.8655451064      0.0492759625
   O      3.2152409015      1.7397214659      0.0100000000
   O      0.9049083614      3.2014443754      5.4295155413
   O      0.9139052037      5.4513056112      4.1842123988
   O      3.1939446447      9.6761264195      1.2941794249
   O      3.4442525443      3.9638922778      4.1247684933
   O      1.1338734528      1.0030080887      1.3107230936
   O      1.1448667942      6.1125523717      1.3291164734
   O      3.6953691676      4.5794914639      1.2677260396
   O      1.3669544319      0.4582264326      4.1920053047
   O      3.4414129640      9.1583313520      4.1378369313
  Ni      2.2231694467      7.8387150113      7.2035685402
  Mn      4.5291854344      7.1731699804     10.2922936861
  Ni      0.0413377460      2.7013109415      7.1873230927
  Ni      2.3609701921      2.0961861161     10.2577598654
  Ni      4.5771780352     10.0853977451      8.7346885689
  Ni      2.2920501783      4.9198282349      8.7249203043
   P      1.9122808731      9.1033963050     10.2303506254
   P      4.2159980376      5.9505261806      7.2449350495
   P      2.6546169098      0.8591972239      7.2193810751
   P      0.3619242519      3.9045525432     10.2286350373
   O      1.2036838524      8.4272438680      8.9424592683
   O      3.4908594272      6.6070736456      8.5306265720
   O      3.3665734522      1.5317059583      8.5103746332
   O      1.0719826629      3.2671856475      8.9234548607
   O      1.3843584724      8.2616841471     11.4220907828
   O      3.6610322847      6.7741729017      6.0533738852
   O      3.2083661661      1.6483492612      6.0140979227
   O      0.8980336260      3.1100721707     11.4336134640
   O      0.9070304683      5.3599334065     10.1883103215
   O      3.1870699093      9.5847542147      7.2982773476
   O      3.4373778089      3.8725200731     10.1288664160
   O      1.1269987174      0.9116358839      7.3148210163
   O      1.1379920588      6.0211801669      7.3332143961
   O      3.6884944322      4.4881192592      7.2718239623
   O      1.3600796965      0.3668542279     10.1961032273
   O      3.4345382286      9.0669591473     10.1419348540
  Ni      2.2184284134      7.6642701413     13.1790322169
  Mn      4.5633848733      6.9879511869     16.2217148989
  Ni      0.0352234565      2.5355377199     13.1737650611
  Ni      2.2938733041      1.9585164729     16.0396897788
  Ni      4.6145555189      9.8812947078     14.6772568844
  Ni      2.2400436090      4.7785952095     14.7003461926
   P      1.9549025330      8.8860241613     16.1913664956
   P      4.2005787266      5.7622462132     13.2174983759
   P      2.6666646638      0.6889574732     13.1667579755
   P      0.3157178676      3.7304694159     16.2346573377
   O      1.2530440250      8.3006408513     14.8440695347
   O      3.4892010078      6.4357720550     14.4956467621
   O      3.3874440453      1.3578749512     14.4446196990
   O      1.0054275311      3.1732911327     14.8583890190
   O      1.4140553124      7.9718643946     17.2940773212
   O      3.6366697114      6.6102317692     12.0508615089
   O      3.2259269963      1.5134681240     11.9831892456
   O      0.9148622254      2.8473683180     17.3226391484
   O      0.8324906884      5.2138367587     16.2401708206
   O      3.2171524250      9.4212179818     13.2105126394
   O      3.3584383832      3.6854642624     16.0536084799
   O      1.1354073248      0.7569588696     13.2978564913
   O      1.1223759559      5.8556795176     13.3249733913
   O      3.6392512228      4.3139368905     13.2255395315
   O      1.4513236178      0.1715543662     16.2018029897
   O      3.4956259923      8.8100695276     16.0919571975
  Ni      6.8356663942      7.9300872161      1.1994706175
  Mn      9.1416823819      7.2645421851      4.2881957634
  Ni      4.6538346934      2.7926831463      1.1832251701
  Ni      6.9734671396      2.1875583209      4.2536619427
  Ni      9.1896749827     10.1767699498      2.7305906462
  Ni      6.9045471258      5.0112004397      2.7208223816
   P      6.5247778206      9.1947685098      4.2262527028
   P      8.8284949851      6.0418983853      1.2408371268
   P      7.2671138573      0.9505694287      1.2152831525
   P      4.9744211994      3.9959247479      4.2245371146
   O      5.8161807998      8.5186160728      2.9383613456
   O      8.1033563747      6.6984458504      2.5265286493
   O      7.9790703997      1.6230781630      2.5062767106
   O      5.6844796104      3.3585578522      2.9193569380
   O      5.9968554199      8.3530563518      5.4179928601
   O      8.2735292322      6.8655451064      0.0492759625
   O      7.8208631136      1.7397214659      0.0100000000
   O      5.5105305734      3.2014443754      5.4295155413
   O      5.5195274158      5.4513056112      4.1842123988
   O      7.7995668567      9.6761264195      1.2941794249
   O      8.0498747564      3.9638922778      4.1247684933
   O      5.7394956648      1.0030080887      1.3107230936
   O      5.7504890062      6.1125523717      1.3291164734
   O      8.3009913797      4.5794914639      1.2677260396
   O      5.9725766440      0.4582264326      4.1920053047
   O      8.0470351761      9.1583313520      4.1378369313
  Ni      6.8287916588      7.8387150113      7.2035685402
  Mn      9.1348076465      7.1731699804     10.2922936861
  Ni      4.6469599580      2.7013109415      7.1873230927
  Ni      6.9665924042      2.0961861161     10.2577598654
  Ni      9.1828002472     10.0853977451      8.7346885689
  Ni      6.8976723903      4.9198282349      8.7249203043
   P      6.5179030852      9.1033963050     10.2303506254
   P      8.8216202497      5.9505261806      7.2449350495
   P      7.2602391219      0.8591972239      7.2193810751
   P      4.9675464640      3.9045525432     10.2286350373
   O      5.8093060644      8.4272438680      8.9424592683
   O      8.0964816393      6.6070736456      8.5306265720
   O      7.9721956643      1.5317059583      8.5103746332
   O      5.6776048750      3.2671856475      8.9234548607
   O      5.9899806845      8.2616841471     11.4220907828
   O      8.2666544968      6.7741729017      6.0533738852
   O      7.8139883782      1.6483492612      6.0140979227
   O      5.5036558380      3.1100721707     11.4336134640
   O      5.5126526804      5.3599334065     10.1883103215
   O      7.7926921213      9.5847542147      7.2982773476
   O      8.0430000209      3.8725200731     10.1288664160
   O      5.7326209294      0.9116358839      7.3148210163
   O      5.7436142708      6.0211801669      7.3332143961
   O      8.2941166443      4.4881192592      7.2718239623
   O      5.9657019086      0.3668542279     10.1961032273
   O      8.0401604407      9.0669591473     10.1419348540
  Ni      6.8282398977      7.6613912126     13.1814134537
  Mn      9.1587182654      7.0291963978     16.2281102350
  Ni      4.6494438348      2.5356682208     13.1616786868
  Ni      6.9806037476      1.8685462819     16.3616078096
  Ni      9.2036519326      9.9048870082     14.7128702778
  Ni      6.8555605888      4.7464596830     14.7258833841
   P      6.5433201456      8.8545647141     16.1853403131
   P      8.8001494527      5.7658956845     13.2263650313
   P      7.2706773008      0.7064854945     13.1955799121
   P      4.9056123775      3.6694532534     16.1758943995
   O      5.8466978043      8.2537423862     14.8340054210
   O      8.0938028244      6.4319284269     14.5060823037
   O      7.9733633196      1.3851140909     14.4707303794
   O      5.6218207252      3.1607035867     14.8218726278
   O      6.0345812909      7.9151069223     17.2839300679
   O      8.2388619331      6.6081881315     12.0548824791
   O      7.8265001360      1.5216904806     11.9991336920
   O      5.4111110914      2.7456227350     17.2735013162
   O      5.4183321555      5.1568667190     16.2472424732
   O      7.8202489860      9.4346870395     13.2364528556
   O      7.9850853196      3.7143531621     16.1402060216
   O      5.7344085936      0.7500118519     13.2832257724
   O      5.7324918002      5.8379577555     13.3238381474
   O      8.2532393147      4.3124895017     13.2451402679
   O      5.9794430303      0.1125520712     16.1664271608
   O      8.0835679037      8.8008468075     16.0659712543
   O      8.0167125864      1.0906168532     17.6455750926
   H      8.8036665971      1.6460663504     17.8634363176
