&control
    calculation = 'relax'
    tprnfor = .true.
    tstress = .true.
    pseudo_dir = '~/PSEUDO'
    outdir = './tmp'
    nstep = 1000
    tefield = .true.
    dipfield = .true.
/
&SYSTEM
    ibrav = 0
    degauss = 0.01
    ecutrho = 500
    ecutwfc = 50
    nat = 156
    nspin = 2
    ntyp = 5
    occupations = 'smearing'
    smearing = 'gaussian'
    vdw_corr = 'DFT-D'
    starting_magnetization(1) = 1
    starting_magnetization(2) = 1
    starting_magnetization(3) = 1
    starting_magnetization(4) = 1
    edir = 3
    eamp = 0.0
    emaxpos = 0.75
/
&ELECTRONS
    electron_maxstep = 150
    mixing_beta = 0.1
    startingpot = 'atomic'
    startingwfc = 'atomic+random'
    scf_must_converge = .FALSE.
    mixing_mode = 'local-TF'
/
&IONS
    ion_dynamics = 'bfgs'
/
K_POINTS gamma
ATOMIC_SPECIES
  Ni   58.693   Ni.pbe-n-rrkjus_psl.1.0.0.UPF
  Mn   54.938   Mn.pbe-spn-rrkjus_psl.0.3.1.UPF
  P    30.973   P.pbe-n-rrkjus_psl.1.0.0.UPF
  O    15.999   O.pbe-rrkjus.UPF
  H    1.0079   H.pbe-rrkjus.UPF

CELL_PARAMETERS angstrom
  9.3666399000  0.0000000000  0.0000000000
  0.0000000000  10.0759721600  0.0000000000
  0.0000000000  0.0000000000  31.9043898325

ATOMIC_POSITIONS angstrom
  Mn  2.2524368768  7.8410485731  15.8298968246
  Ni  4.6534647676  7.2372933759  12.7885069612
  Ni  0.0619603813  2.7507417195  15.7619405408
  Ni  2.4219525798  2.2066470848  12.7573137200
  Ni  9.3547912696  10.0189430711  14.2502831001
  Ni  2.3579554440  4.9928972857  14.2742654737
  Ni  6.9796879716  7.8094759467  15.7800197036
  Ni  9.3096730862  7.2486592073  12.7959547321
  Ni  4.7877892837  2.7388876079  15.7518125325
  Ni  7.1245715506  2.1723741671  12.7549499160
  Ni  4.7058610954  10.0111896155  14.2356937885
  Ni  7.0530582306  4.9810850236  14.2593678005
  P  1.9603854589  9.1147683914  12.8545518000
  P  4.3608513788  5.9567469616  15.7304847734
  P  2.7263470654  0.9622942144  15.7103819289
  P  0.3711210654  4.0167855221  12.8041562347
  O  1.2123972175  8.4423962275  14.1044521193
  O  3.6291095674  6.6079529628  14.4544038612
  O  3.4680363025  1.6061908509  14.4328375898
  O  1.1093829690  3.3560280086  14.0784736544
  O  1.3596349964  8.2903015831  11.6907069771
  O  3.7923299398  6.7866788753  16.9080054026
  O  3.3003412998  1.7802036414  16.8909099068
  O  0.9531584297  3.1944778255  11.6260826138
  O  0.9136186619  5.4788170066  12.8424808999
  O  3.2629172638  9.6616373640  15.7345252949
  O  3.5446225228  3.9575161178  12.8883723434
  O  1.1879123926  1.0003050009  15.6198569469
  O  1.1354873087  6.0172885221  15.6478144591
  O  3.7965946052  4.5047793739  15.7061439067
  O  1.4392974591  0.4186119975  12.8279964335
  O  3.4959570534  9.0216820656  12.9373466192
  P  6.6688818178  9.0818697660  12.8283484297
  P  9.0062189322  5.9603600909  15.7414473155
  P  7.4256001189  0.9086202570  15.7140659261
  P  5.0827169838  3.9992509557  12.7930103638
  O  5.9261601580  8.4217167502  14.1019959772
  O  8.2821359139  6.6345837355  14.4655016849
  O  8.1641303211  1.5714890624  14.4389480499
  O  5.8185662143  3.3332742464  14.0665486866
  O  6.0955409502  8.2542035613  11.6493585827
  O  8.4431397248  6.8043561646  16.9143898325
  O  8.0075057281  1.7308700581  16.8911650811
  O  5.6616365268  3.1647127013  11.6225289213
  O  5.6428606763  5.4543254211  12.8227236535
  O  7.9606510584  9.6050043719  15.7299968524
  O  8.2411397074  3.9394448823  12.8913296309
  O  5.8887324813  0.9691066170  15.6155465039
  O  5.8962744512  6.0206445220  15.6387690063
  O  8.4527730620  4.5056460963  15.7100817987
  O  6.1330998669  0.3849570199  12.8062193185
  O  8.2056512655  9.0225139588  12.9299797607
  Mn  2.2524368768  7.7240452976  10.0236323639  0 0 0
  Ni  4.6534647676  7.1202901005  6.9822425005  0 0 0
  Ni  0.0619603813  2.6337384440  9.9556760802  0 0 0
  Ni  2.4219525798  2.0896438093  6.9510492594  0 0 0
  Ni  9.3547912696  9.9019397956  8.4440186395  0 0 0
  Ni  2.3579554440  4.8758940102  8.4680010131  0 0 0
  Ni  6.9796879716  7.6924726712  9.9737552430  0 0 0
  Ni  9.3096730862  7.1316559318  6.9896902714  0 0 0
  Ni  4.7877892837  2.6218843324  9.9455480718  0 0 0
  Ni  7.1245715506  2.0553708916  6.9486854554  0 0 0
  Ni  4.7058610954  9.8941863400  8.4294293279  0 0 0
  Ni  7.0530582306  4.8640817481  8.4531033399  0 0 0
  P  1.9603854589  8.9977651159  7.0482873394  0 0 0
  P  4.3608513788  5.8397436861  9.9242203128  0 0 0
  P  2.7263470654  0.8452909389  9.9041174682  0 0 0
  P  0.3711210654  3.8997822466  6.9978917740  0 0 0
  O  1.2123972175  8.3253929520  8.2981876587  0 0 0
  O  3.6291095674  6.4909496873  8.6481394006  0 0 0
  O  3.4680363025  1.4891875754  8.6265731291  0 0 0
  O  1.1093829690  3.2390247331  8.2722091938  0 0 0
  O  1.3596349964  8.1732983076  5.8844425164  0 0 0
  O  3.7923299398  6.6696755998  11.1017409419  0 0 0
  O  3.3003412998  1.6632003659  11.0846454462  0 0 0
  O  0.9531584297  3.0774745500  5.8198181531  0 0 0
  O  0.9136186619  5.3618137311  7.0362164392  0 0 0
  O  3.2629172638  9.5446340885  9.9282608343  0 0 0
  O  3.5446225228  3.8405128423  7.0821078828  0 0 0
  O  1.1879123926  0.8833017255  9.8135924863  0 0 0
  O  1.1354873087  5.9002852466  9.8415499985  0 0 0
  O  3.7965946052  4.3877760984  9.8998794461  0 0 0
  O  1.4392974591  0.3016087220  7.0217319728  0 0 0
  O  3.4959570534  8.9046787901  7.1310821586  0 0 0
  P  6.6688818178  8.9648664905  7.0220839690  0 0 0
  P  9.0062189322  5.8433568154  9.9351828548  0 0 0
  P  7.4256001189  0.7916169815  9.9078014654  0 0 0
  P  5.0827169838  3.8822476802  6.9867459032  0 0 0
  O  5.9261601580  8.3047134747  8.2957315165  0 0 0
  O  8.2821359139  6.5175804600  8.6592372243  0 0 0
  O  8.1641303211  1.4544857869  8.6326835892  0 0 0
  O  5.8185662143  3.2162709709  8.2602842260  0 0 0
  O  6.0955409502  8.1372002858  5.8430941221  0 0 0
  O  8.4431397248  6.6873528892  11.1081253718  0 0 0
  O  8.0075057281  1.6138667826  11.0849006204  0 0 0
  O  5.6616365268  3.0477094258  5.8162644606  0 0 0
  O  5.6428606763  5.3373221456  7.0164591929  0 0 0
  O  7.9606510584  9.4880010964  9.9237323917  0 0 0
  O  8.2411397074  3.8224416068  7.0850651702  0 0 0
  O  5.8887324813  0.8521033415  9.8092820433  0 0 0
  O  5.8962744512  5.9036412465  9.8325045456  0 0 0
  O  8.4527730620  4.3886428208  9.9038173381  0 0 0
  O  6.1330998669  0.2679537444  6.9999548578  0 0 0
  O  8.2056512655  8.9055106833  7.1237153000  0 0 0
  Mn  2.2524368768  7.6070420221  4.2173679033  0 0 0
  Ni  4.6534647676  7.0032868250  1.1759780399  0 0 0
  Ni  0.0619603813  2.5167351685  4.1494116195  0 0 0
  Ni  2.4219525798  1.9726405338  1.1447847987  0 0 0
  Ni  9.3547912696  9.7849365202  2.6377541788  0 0 0
  Ni  2.3579554440  4.7588907347  2.6617365524  0 0 0
  Ni  6.9796879716  7.5754693957  4.1674907823  0 0 0
  Ni  9.3096730862  7.0146526563  1.1834258107  0 0 0
  Ni  4.7877892837  2.5048810569  4.1392836112  0 0 0
  Ni  7.1245715506  1.9383676161  1.1424209947  0 0 0
  Ni  4.7058610954  9.7771830645  2.6231648672  0 0 0
  Ni  7.0530582306  4.7470784726  2.6468388792  0 0 0
  P  1.9603854589  8.8807618404  1.2420228787  0 0 0
  P  4.3608513788  5.7227404107  4.1179558521  0 0 0
  P  2.7263470654  0.7282876635  4.0978530075  0 0 0
  P  0.3711210654  3.7827789711  1.1916273134  0 0 0
  O  1.2123972175  8.2083896765  2.4919231980  0 0 0
  O  3.6291095674  6.3739464118  2.8418749399  0 0 0
  O  3.4680363025  1.3721842999  2.8203086685  0 0 0
  O  1.1093829690  3.1220214576  2.4659447331  0 0 0
  O  1.3596349964  8.0562950321  0.0781780558  0 0 0
  O  3.7923299398  6.5526723243  5.2954764813  0 0 0
  O  3.3003412998  1.5461970904  5.2783809855  0 0 0
  O  0.9531584297  2.9604712745  0.0135536924  0 0 0
  O  0.9136186619  5.2448104556  1.2299519786  0 0 0
  O  3.2629172638  9.4276308131  4.1219963736  0 0 0
  O  3.5446225228  3.7235095668  1.2758434221  0 0 0
  O  1.1879123926  0.7662984500  4.0073280256  0 0 0
  O  1.1354873087  5.7832819711  4.0352855378  0 0 0
  O  3.7965946052  4.2707728229  4.0936149854  0 0 0
  O  1.4392974591  0.1846054465  1.2154675122  0 0 0
  O  3.4959570534  8.7876755146  1.3248176979  0 0 0
  P  6.6688818178  8.8478632150  1.2158195084  0 0 0
  P  9.0062189322  5.7263535399  4.1289183942  0 0 0
  P  7.4256001189  0.6746137060  4.1015370047  0 0 0
  P  5.0827169838  3.7652444047  1.1804814425  0 0 0
  O  5.9261601580  8.1877101992  2.4894670559  0 0 0
  O  8.2821359139  6.4005771845  2.8529727636  0 0 0
  O  8.1641303211  1.3374825114  2.8264191286  0 0 0
  O  5.8185662143  3.0992676954  2.4540197653  0 0 0
  O  6.0955409502  8.0201970103  0.0368296614  0 0 0
  O  8.4431397248  6.5703496137  5.3018609112  0 0 0
  O  8.0075057281  1.4968635071  5.2786361598  0 0 0
  O  5.6616365268  2.9307061503  0.0100000000  0 0 0
  O  5.6428606763  5.2203188701  1.2101947322  0 0 0
  O  7.9606510584  9.3709978209  4.1174679311  0 0 0
  O  8.2411397074  3.7054383313  1.2788007096  0 0 0
  O  5.8887324813  0.7351000660  4.0030175826  0 0 0
  O  5.8962744512  5.7866379710  4.0262400850  0 0 0
  O  8.4527730620  4.2716395453  4.0975528774  0 0 0
  O  6.1330998669  0.1509504689  1.1936903972  0 0 0
  O  8.2056512655  8.7885074078  1.3174508394  0 0 0
