&CONTROL 
 calculation = 'scf' 
 restart_mode = 'from_scratch'
 nstep = 1 
 outdir= './OER' 
 pseudo_dir = "~/PSEUDO"
dipfield = .TRUE. 
 tefield = .TRUE. 
 wf_collect = .TRUE. 
 disk_io = 'none' 
 tprnfor = .true.
 / 

 &SYSTEM
ibrav = 0
    degauss = 0.01
    ecutrho = 500
    ecutwfc = 50
    nat = 158
    nspin = 2
    ntyp = 5
    occupations = 'smearing'
    smearing = 'gaussian'
    vdw_corr = 'DFT-D'
    starting_magnetization(1) = 1
    starting_magnetization(2) = 1
    starting_magnetization(3) = 1
    starting_magnetization(4) = 1
    edir = 3
    eamp = 0.0
    emaxpos = 0.75
/

&ELECTRONS
    electron_maxstep = 150
    mixing_beta = 0.1
    startingpot = 'atomic'
    startingwfc = 'atomic+random'
    scf_must_converge = .FALSE.
    mixing_mode = 'local-TF'
/

&IONS
    ion_dynamics = 'bfgs'
/

K_POINTS gamma

ATOMIC_SPECIES
  Ni   58.693   Ni.pbe-n-rrkjus_psl.1.0.0.UPF
  Mn   54.938   Mn.pbe-spn-rrkjus_psl.0.3.1.UPF
  P    30.973   P.pbe-n-rrkjus_psl.1.0.0.UPF
  O    15.999   O.pbe-rrkjus.UPF
  H    1.0079   H.pbe-rrkjus.UPF

CELL_PARAMETERS angstrom
9.2112444241  0.0000000000  0.0000000000
  -0.0129335416  10.1848326152  0.0000000000
  0.0000000000  0.0000000000  32.4277113867

ATOMIC_POSITIONS {angstrom} 
  Ni      2.2300441821      7.9300872161      1.1994706175
  Mn      4.5360601698      7.2645421851      4.2881957634
  Ni      0.0482124814      2.7926831463      1.1832251701
  Ni      2.3678449275      2.1875583209      4.2536619427
  Ni      4.5840527706     10.1767699498      2.7305906462
  Ni      2.2989249137      5.0112004397      2.7208223816
   P      1.9191556085      9.1947685098      4.2262527028
   P      4.2228727730      6.0418983853      1.2408371268
   P      2.6614916452      0.9505694287      1.2152831525
   P      0.3687989873      3.9959247479      4.2245371146
   O      1.2105585878      8.5186160728      2.9383613456
   O      3.4977341627      6.6984458504      2.5265286493
   O      3.3734481877      1.6230781630      2.5062767106
   O      1.0788573983      3.3585578522      2.9193569380
   O      1.3912332078      8.3530563518      5.4179928601
   O      3.6679070201      6.8655451064      0.0492759625
   O      3.2152409015      1.7397214659      0.0100000000
   O      0.9049083614      3.2014443754      5.4295155413
   O      0.9139052037      5.4513056112      4.1842123988
   O      3.1939446447      9.6761264195      1.2941794249
   O      3.4442525443      3.9638922778      4.1247684933
   O      1.1338734528      1.0030080887      1.3107230936
   O      1.1448667942      6.1125523717      1.3291164734
   O      3.6953691676      4.5794914639      1.2677260396
   O      1.3669544319      0.4582264326      4.1920053047
   O      3.4414129640      9.1583313520      4.1378369313
  Ni      2.2231694467      7.8387150113      7.2035685402
  Mn      4.5291854344      7.1731699804     10.2922936861
  Ni      0.0413377460      2.7013109415      7.1873230927
  Ni      2.3609701921      2.0961861161     10.2577598654
  Ni      4.5771780352     10.0853977451      8.7346885689
  Ni      2.2920501783      4.9198282349      8.7249203043
   P      1.9122808731      9.1033963050     10.2303506254
   P      4.2159980376      5.9505261806      7.2449350495
   P      2.6546169098      0.8591972239      7.2193810751
   P      0.3619242519      3.9045525432     10.2286350373
   O      1.2036838524      8.4272438680      8.9424592683
   O      3.4908594272      6.6070736456      8.5306265720
   O      3.3665734522      1.5317059583      8.5103746332
   O      1.0719826629      3.2671856475      8.9234548607
   O      1.3843584724      8.2616841471     11.4220907828
   O      3.6610322847      6.7741729017      6.0533738852
   O      3.2083661661      1.6483492612      6.0140979227
   O      0.8980336260      3.1100721707     11.4336134640
   O      0.9070304683      5.3599334065     10.1883103215
   O      3.1870699093      9.5847542147      7.2982773476
   O      3.4373778089      3.8725200731     10.1288664160
   O      1.1269987174      0.9116358839      7.3148210163
   O      1.1379920588      6.0211801669      7.3332143961
   O      3.6884944322      4.4881192592      7.2718239623
   O      1.3600796965      0.3668542279     10.1961032273
   O      3.4345382286      9.0669591473     10.1419348540
  Ni      2.1834448657      7.6541184374     13.2007961968
  Mn      4.5380400976      7.0272285535     16.2417128792
  Ni      0.0321571890      2.5436895013     13.1612014322
  Ni      2.2542122071      1.9743598869     16.0301919394
  Ni      4.6017198273      9.9015855004     14.6832564588
  Ni      2.2255611932      4.7760071560     14.6704393837
   P      1.9458789315      8.9003944200     16.2431624525
   P      4.1839144542      5.7822308812     13.2145755028
   P      2.6565041945      0.6831798453     13.1676301199
   P      0.2886890082      3.7391297003     16.1934122494
   O      1.1992387151      8.1945594395     14.9602186061
   O      3.4676540215      6.4531235880     14.4854366561
   O      3.3761581245      1.3654421383     14.4406864392
   O      1.0058647409      3.1613205437     14.8224754687
   O      1.4537957186      8.0499186438     17.4061341348
   O      3.6231733845      6.6200191090     12.0413919574
   O      3.2250834753      1.4990367109     11.9823982274
   O      0.8408818039      2.8267556780     17.2736205909
   O      0.8420159677      5.2137708858     16.1347155539
   O      3.1852479090      9.4085250295     13.2386483581
   O      3.3381290931      3.6929113965     16.0580592105
   O      1.1238251400      0.7450835642     13.2819396813
   O      1.1089533021      5.8647233649     13.2939396034
   O      3.6425103927      4.3257945043     13.2209387248
   O      1.4190680178      0.1767896480     16.1551051199
   O      3.4815446085      8.8573445678     16.0814511113
  Ni      6.8356663942      7.9300872161      1.1994706175
  Mn      9.1416823819      7.2645421851      4.2881957634
  Ni      4.6538346934      2.7926831463      1.1832251701
  Ni      6.9734671396      2.1875583209      4.2536619427
  Ni      9.1896749827     10.1767699498      2.7305906462
  Ni      6.9045471258      5.0112004397      2.7208223816
   P      6.5247778206      9.1947685098      4.2262527028
   P      8.8284949851      6.0418983853      1.2408371268
   P      7.2671138573      0.9505694287      1.2152831525
   P      4.9744211994      3.9959247479      4.2245371146
   O      5.8161807998      8.5186160728      2.9383613456
   O      8.1033563747      6.6984458504      2.5265286493
   O      7.9790703997      1.6230781630      2.5062767106
   O      5.6844796104      3.3585578522      2.9193569380
   O      5.9968554199      8.3530563518      5.4179928601
   O      8.2735292322      6.8655451064      0.0492759625
   O      7.8208631136      1.7397214659      0.0100000000
   O      5.5105305734      3.2014443754      5.4295155413
   O      5.5195274158      5.4513056112      4.1842123988
   O      7.7995668567      9.6761264195      1.2941794249
   O      8.0498747564      3.9638922778      4.1247684933
   O      5.7394956648      1.0030080887      1.3107230936
   O      5.7504890062      6.1125523717      1.3291164734
   O      8.3009913797      4.5794914639      1.2677260396
   O      5.9725766440      0.4582264326      4.1920053047
   O      8.0470351761      9.1583313520      4.1378369313
  Ni      6.8287916588      7.8387150113      7.2035685402
  Mn      9.1348076465      7.1731699804     10.2922936861
  Ni      4.6469599580      2.7013109415      7.1873230927
  Ni      6.9665924042      2.0961861161     10.2577598654
  Ni      9.1828002472     10.0853977451      8.7346885689
  Ni      6.8976723903      4.9198282349      8.7249203043
   P      6.5179030852      9.1033963050     10.2303506254
   P      8.8216202497      5.9505261806      7.2449350495
   P      7.2602391219      0.8591972239      7.2193810751
   P      4.9675464640      3.9045525432     10.2286350373
   O      5.8093060644      8.4272438680      8.9424592683
   O      8.0964816393      6.6070736456      8.5306265720
   O      7.9721956643      1.5317059583      8.5103746332
   O      5.6776048750      3.2671856475      8.9234548607
   O      5.9899806845      8.2616841471     11.4220907828
   O      8.2666544968      6.7741729017      6.0533738852
   O      7.8139883782      1.6483492612      6.0140979227
   O      5.5036558380      3.1100721707     11.4336134640
   O      5.5126526804      5.3599334065     10.1883103215
   O      7.7926921213      9.5847542147      7.2982773476
   O      8.0430000209      3.8725200731     10.1288664160
   O      5.7326209294      0.9116358839      7.3148210163
   O      5.7436142708      6.0211801669      7.3332143961
   O      8.2941166443      4.4881192592      7.2718239623
   O      5.9657019086      0.3668542279     10.1961032273
   O      8.0401604407      9.0669591473     10.1419348540
  Ni      6.8213638153      7.6621520110     13.1823335690
  Mn      9.1708161014      7.0465220023     16.3306905329
  Ni      4.6419799543      2.5435285386     13.1598999463
  Ni      6.8825554665      1.9888889044     16.0278411585
  Ni      9.2086995806      9.8810470884     14.6904010193
  Ni      6.8380506932      4.8136511944     14.7224913743
   P      6.5461128517      8.9234582551     16.1921111747
   P      8.7830582003      5.7861565409     13.2190204473
   P      7.2728579055      0.6885752641     13.1640884374
   P      4.8796987448      3.7019358714     16.2103992399
   O      5.8592476380      8.2983981484     14.8617270081
   O      8.0801320426      6.4753184071     14.4812333415
   O      7.9908128387      1.3618545657     14.4434607512
   O      5.6122535969      3.1897214681     14.8315655962
   O      5.9842199775      8.0601020749     17.3291763614
   O      8.2197094551      6.6079447832     12.0315922833
   O      7.8317014914      1.5140008180     11.9818485083
   O      5.4254742577      2.7653785054     17.2716824810
   O      5.3767144997      5.1889703466     16.2565364746
   O      7.8230893151      9.4207976945     13.2156517681
   O      7.9606337301      3.7155742044     16.0507723734
   O      5.7399560997      0.7532049846     13.2809844009
   O      5.7159288655      5.8697159690     13.3260011083
   O      8.2423034194      4.3299182075     13.2410240482
   O      6.0374811821      0.2037585004     16.1650849107
   O      8.0906862282      8.8517026877     16.1099313840
   O      8.1279011701      6.3737006874     17.5929584563
   H      7.3162014369      6.9063539137     17.7593565547
