&CONTROL 
 calculation = 'scf' 
 restart_mode = 'from_scratch'
 nstep = 1 
 outdir= './OER' 
 pseudo_dir = "~/PSEUDO"
dipfield = .TRUE. 
 tefield = .TRUE. 
 wf_collect = .TRUE. 
 disk_io = 'none' 
 tprnfor = .true.
 / 

 &SYSTEM
ibrav = 0
    degauss = 0.01
    ecutrho = 500
    ecutwfc = 50
    nat = 158
    nspin = 2
    ntyp = 5
    occupations = 'smearing'
    smearing = 'gaussian'
    vdw_corr = 'DFT-D'
    starting_magnetization(1) = 1
    starting_magnetization(2) = 1
    starting_magnetization(3) = 1
    starting_magnetization(4) = 1
    edir = 3
    eamp = 0.0
    emaxpos = 0.75
/

&ELECTRONS
    electron_maxstep = 150
    mixing_beta = 0.1
    startingpot = 'atomic'
    startingwfc = 'atomic+random'
    scf_must_converge = .FALSE.
    mixing_mode = 'local-TF'
/

&IONS
    ion_dynamics = 'bfgs'
/

K_POINTS gamma

ATOMIC_SPECIES
  Ni   58.693   Ni.pbe-n-rrkjus_psl.1.0.0.UPF
  Mn   54.938   Mn.pbe-spn-rrkjus_psl.0.3.1.UPF
  P    30.973   P.pbe-n-rrkjus_psl.1.0.0.UPF
  O    15.999   O.pbe-rrkjus.UPF
  H    1.0079   H.pbe-rrkjus.UPF

CELL_PARAMETERS angstrom
9.3666399000  0.0000000000  0.0000000000
  0.0000000000  10.0759721600  0.0000000000
  0.0000000000  0.0000000000  31.9043898325

ATOMIC_POSITIONS {angstrom} 
  Mn      2.2524368768      7.8410485731      1.0944930079
  Ni      4.6534647676      7.2372933759      4.1358828713
  Ni      0.0619603813      2.7507417195      1.1624492917
  Ni      2.4219525798      2.2066470848      4.1670761125
  Ni      9.3547912696     10.0189430711      2.6741067324
  Ni      2.3579554440      4.9928972857      2.6501243588
  Ni      6.9796879716      7.8094759467      1.1443701289
  Ni      9.3096730862      7.2486592073      4.1284351004
  Ni      4.7877892837      2.7388876079      1.1725773000
  Ni      7.1245715506      2.1723741671      4.1694399165
  Ni      4.7058610954     10.0111896155      2.6886960440
  Ni      7.0530582306      4.9810850236      2.6650220320
   P      1.9603854589      9.1147683914      4.0698380325
   P      4.3608513788      5.9567469616      1.1939050591
   P      2.7263470654      0.9622942144      1.2140079036
   P      0.3711210654      4.0167855221      4.1202335978
   O      1.2123972175      8.4423962275      2.8199377132
   O      3.6291095674      6.6079529628      2.4699859713
   O      3.4680363025      1.6061908509      2.4915522427
   O      1.1093829690      3.3560280086      2.8459161781
   O      1.3596349964      8.2903015831      5.2336828554
   O      3.7923299398      6.7866788753      0.0163844299
   O      3.3003412998      1.7802036414      0.0334799257
   O      0.9531584297      3.1944778255      5.2983072187
   O      0.9136186619      5.4788170066      4.0819089326
   O      3.2629172638      9.6616373640      1.1898645376
   O      3.5446225228      3.9575161178      4.0360174891
   O      1.1879123926      1.0003050009      1.3045328856
   O      1.1354873087      6.0172885221      1.2765753734
   O      3.7965946052      4.5047793739      1.2182459258
   O      1.4392974591      0.4186119975      4.0963933990
   O      3.4959570534      9.0216820656      3.9870432133
   P      6.6688818178      9.0818697660      4.0960414028
   P      9.0062189322      5.9603600909      1.1829425170
   P      7.4256001189      0.9086202570      1.2103239064
   P      5.0827169838      3.9992509557      4.1313794687
   O      5.9261601580      8.4217167502      2.8223938553
   O      8.2821359139      6.6345837355      2.4588881476
   O      8.1641303211      1.5714890624      2.4854417826
   O      5.8185662143      3.3332742464      2.8578411459
   O      6.0955409502      8.2542035613      5.2750312498
   O      8.4431397248      6.8043561646      0.0100000000
   O      8.0075057281      1.7308700581      0.0332247514
   O      5.6616365268      3.1647127013      5.3018609112
   O      5.6428606763      5.4543254211      4.1016661790
   O      7.9606510584      9.6050043719      1.1943929801
   O      8.2411397074      3.9394448823      4.0330602016
   O      5.8887324813      0.9691066170      1.3088433286
   O      5.8962744512      6.0206445220      1.2856208262
   O      8.4527730620      4.5056460963      1.2143080338
   O      6.1330998669      0.3849570199      4.1181705140
   O      8.2056512655      9.0225139588      3.9944100718
  Mn      2.2524368768      7.7240452976      6.9007574686
  Ni      4.6534647676      7.1202901005      9.9421473320
  Ni      0.0619603813      2.6337384440      6.9687137523
  Ni      2.4219525798      2.0896438093      9.9733405731
  Ni      9.3547912696      9.9019397956      8.4803711930
  Ni      2.3579554440      4.8758940102      8.4563888194
  Ni      6.9796879716      7.6924726712      6.9506345895
  Ni      9.3096730862      7.1316559318      9.9346995611
  Ni      4.7877892837      2.6218843324      6.9788417607
  Ni      7.1245715506      2.0553708916      9.9757043771
  Ni      4.7058610954      9.8941863400      8.4949605046
  Ni      7.0530582306      4.8640817481      8.4712864926
   P      1.9603854589      8.9977651159      9.8761024931
   P      4.3608513788      5.8397436861      7.0001695197
   P      2.7263470654      0.8452909389      7.0202723643
   P      0.3711210654      3.8997822466      9.9264980585
   O      1.2123972175      8.3253929520      8.6262021738
   O      3.6291095674      6.4909496873      8.2762504319
   O      3.4680363025      1.4891875754      8.2978167034
   O      1.1093829690      3.2390247331      8.6521806387
   O      1.3596349964      8.1732983076     11.0399473161
   O      3.7923299398      6.6696755998      5.8226488906
   O      3.3003412998      1.6632003659      5.8397443863
   O      0.9531584297      3.0774745500     11.1045716794
   O      0.9136186619      5.3618137311      9.8881733933
   O      3.2629172638      9.5446340885      6.9961289982
   O      3.5446225228      3.8405128423      9.8422819497
   O      1.1879123926      0.8833017255      7.1107973462
   O      1.1354873087      5.9002852466      7.0828398340
   O      3.7965946052      4.3877760984      7.0245103864
   O      1.4392974591      0.3016087220      9.9026578597
   O      3.4959570534      8.9046787901      9.7933076739
   P      6.6688818178      8.9648664905      9.9023058635
   P      9.0062189322      5.8433568154      6.9892069777
   P      7.4256001189      0.7916169815      7.0165883671
   P      5.0827169838      3.8822476802      9.9376439293
   O      5.9261601580      8.3047134747      8.6286583160
   O      8.2821359139      6.5175804600      8.2651526082
   O      8.1641303211      1.4544857869      8.2917062433
   O      5.8185662143      3.2162709709      8.6641056065
   O      6.0955409502      8.1372002858     11.0812957104
   O      8.4431397248      6.6873528892      5.8162644607
   O      8.0075057281      1.6138667826      5.8394892121
   O      5.6616365268      3.0477094258     11.1081253719
   O      5.6428606763      5.3373221456      9.9079306396
   O      7.9606510584      9.4880010964      7.0006574408
   O      8.2411397074      3.8224416068      9.8393246623
   O      5.8887324813      0.8521033415      7.1151077892
   O      5.8962744512      5.9036412465      7.0918852869
   O      8.4527730620      4.3886428208      7.0205724944
   O      6.1330998669      0.2679537444      9.9244349747
   O      8.2056512655      8.9055106833      9.8006745325
  Mn      2.2014318266      7.5904247262     12.7859377605
  Ni      4.7300023361      6.9603489617     15.6917107736
  Ni      0.0803701422      2.5080550906     12.8370833957
  Ni      2.3649092830      1.9746529181     15.7006038189
  Ni      9.3963561232      9.8021179367     14.4116671955
  Ni      2.3441341556      4.7404303099     14.3266892210
  Ni      6.9555264887      7.5417599327     12.8156969837
  Ni      9.3966931947      7.0065006175     15.7192473020
  Ni      4.7863307512      2.4999355698     12.8279417841
  Ni      7.1349581854      1.8755687348     15.9674169487
  Ni      4.7397219683      9.7664021830     14.3584285526
  Ni      7.0187309295      4.7115249951     14.3609342968
   P      2.0329214743      8.7618113862     15.9116276403
   P      4.3322302440      5.6948972616     12.8285813225
   P      2.7371205252      0.6970654017     12.8589989043
   P      0.3752257651      3.7596017996     15.8512235019
   O      1.2827310747      8.1811933874     14.5595344777
   O      3.6078179133      6.3480547311     14.1085789583
   O      3.4810851264      1.3387504704     14.1291628810
   O      1.0841776789      3.1531029391     14.4935394342
   O      1.4444573945      7.8616321657     16.9856203410
   O      3.7669870991      6.5416093974     11.6582323362
   O      3.3095041637      1.4931373190     11.6658980381
   O      0.9779313416      2.8757839056     16.9446116240
   O      0.9151063500      5.2293265759     15.8127400908
   O      3.2732136565      9.3054575272     12.8939377936
   O      3.4988064907      3.6729850957     15.6865220544
   O      1.2035036496      0.7509390988     12.9840283613
   O      1.1403904368      5.7978860343     12.9384537693
   O      3.7549673719      4.2487409098     12.8418691852
   O      1.5311941780      0.1718801349     15.8700939557
   O      3.5723346791      8.6886944683     15.7371776996
   P      6.6979380952      8.7128733830     15.8538485451
   P      8.9653602994      5.7130515760     12.8339819625
   P      7.4266165348      0.6779365732     12.8790921293
   P      5.0505062017      3.6845615924     15.8042431674
   O      5.9561606288      8.1336265275     14.4816659125
   O      8.2615348357      6.3782221378     14.1157211184
   O      8.1423871942      1.3640188228     14.1466484777
   O      5.7765407865      3.1179458928     14.4672330992
   O      6.1486481846      7.7790824390     16.9214441094
   O      8.4106953994      6.5423900918     11.6484475856
   O      8.0023430917      1.4876587925     11.6858945615
   O      5.5875734412      2.7762833016     16.9052057946
   O      5.5769817814      5.1644780687     15.8208224087
   O      7.9867290839      9.3003963598     12.9168882998
   O      8.1995927737      3.7170539942     15.7541739128
   O      5.8876382827      0.7241740238     12.9566912544
   O      5.8666339208      5.7522768917     12.9366307723
   O      8.4306383739      4.2576210893     12.8725149022
   O      6.1303988701      0.0937490900     15.8061125342
   O      8.2405495954      8.6787815570     15.7026924490
   O      8.2091955546      1.0920016167     17.2158239998
   H      9.0079191848      1.6511204597     17.4249807103
