&control
    calculation = 'scf'
    restart_mode = 'from_scratch'
    nstep = 1
    pseudo_dir 	= '/home/praktikum/PSEUDO'
    disk_io 	= 'none'
    tprnfor 	= .true.
    dipfield      = .TRUE.
    tefield       = .TRUE.
/

&SYSTEM
    degauss                   = 0.01
    ecutrho                   = 500
    ecutwfc                   = 50
    ibrav                     = 0
    nat                       = 158
    ntyp                      = 4
    occupations               = "smearing"
    smearing                  = "gaussian"
    nspin                     = 2
    starting_magnetization(1) = 1
    starting_magnetization(2) = 1
    starting_magnetization(3) = 1
    edir                      = 3
    vdw_corr                  = 'DFT-D'
    eamp                      = 0.0
    emaxpos                   = 0.75
/

&ELECTRONS
    electron_maxstep = 150
    mixing_beta      = 0.2
    startingpot      = "atomic"
    startingwfc      = "atomic+random"
    scf_must_converge= .FALSE.
/

&IONS
 ion_dynamics = 'bfgs'
/

ATOMIC_SPECIES
Ni   58.69340  Ni.pbe-n-rrkjus_psl.1.0.0.UPF
P    30.97376  P.pbe-n-rrkjus_psl.1.0.0.UPF
O    15.99940  O.pbe-rrkjus.UPF
H     1.00794  H.pbe-rrkjus.UPF

ATOMIC_POSITIONS (angstrom)
  Ni      2.2752103280      7.7744991150      1.1559810360
  Ni      4.6198797430      7.2051492680      4.1240823220
  Ni      0.0694590880      2.7170293120      1.1559810370
  Ni      2.4141285040      2.1476794650      4.1240823230
  Ni      0.0000000000     10.0185590960      2.6400316800
  Ni      2.3446694160      4.9610892900      2.6400316790
   P      1.9685982240      9.0252355940      4.1008002580
   P      4.3132676400      5.9544127890      1.1792631000
   P      2.7207406070      0.8969429860      1.1792631010
   P      0.3760711920      3.9677657910      4.1008002590
   O      1.2316913870      8.3674752860      2.8244644690
   O      3.5763608030      6.6121730970      2.4555988890
   O      3.4576474440      1.5547032940      2.4555988900
   O      1.1129780280      3.3100054830      2.8244644700
   O      1.3794229920      8.1964259050      5.2700633580
   O      3.7240924070      6.7832224780      0.0100000000
   O      3.3099158400      1.7257526750      0.0100000010
   O      0.9652464240      3.1389561020      5.2700633590
   O      0.9220154060      5.4266005210      4.0688980370
   O      3.2666848220      9.5530478630      1.2111653210
   O      3.5297276120      3.9094173680      4.0089148720
   O      1.1850581960      0.9552914090      1.2711484880
   O      1.1596112200      6.0127612130      1.2711484870
   O      3.7673234250      4.4955780590      1.2111653220
   O      1.4226540100      0.3691307180      4.0688980370
   O      3.5042806360      8.9668871710      4.0089148710
  Ni      2.2752103280      7.5817380910      6.9530310260
  Ni      4.6198797430      7.0123882440      9.9211323120
  Ni      0.0694590880      2.5242682880      6.9530310260
  Ni      2.4141285040      1.9549184400      9.9211323130
  Ni      0.0000000000      9.8257980710      8.4370816700
  Ni      2.3446694160      4.7683282660      8.4370816690
   P      1.9685982240      8.8324745700      9.8978502480
   P      4.3132676400      5.7616517650      6.9763130900
   P      2.7207406070      0.7041819610      6.9763130910
   P      0.3760711920      3.7750047670      9.8978502480
   O      1.2316913870      8.1747142620      8.6215144590
   O      3.5763608030      6.4194120730      8.2526488790
   O      3.4576474440      1.3619422690      8.2526488790
   O      1.1129780280      3.1172444590      8.6215144600
   O      1.3794229920      8.0036648810     11.0671133480
   O      3.7240924070      6.5904614540      5.8070499900
   O      3.3099158400      1.5329916500      5.8070499910
   O      0.9652464240      2.9461950770     11.0671133490
   O      0.9220154060      5.2338394960      9.8659480260
   O      3.2666848220      9.3602868380      7.0082153110
   O      3.5297276120      3.7166563430      9.8059648620
   O      1.1850581960      0.7625303850      7.0681984770
   O      1.1596112200      5.8200001880      7.0681984770
   O      3.7673234250      4.3028170350      7.0082153120
   O      1.4226540100      0.1763696930      9.8659480270
   O      3.5042806360      8.7741261460      9.8059648610
  Ni      2.2734299551      7.4070859018     12.7727965032
  Ni      4.5764306888      6.7700589597     15.8633844293
  Ni      0.0742512827      2.3500968937     12.7668444847
  Ni      2.3147385538      1.8149077417     15.6054094316
  Ni      0.0159767936      9.6509783164     14.2684950789
  Ni      2.3204531186      4.6055717868     14.3027082034
   P      1.9809632893      8.6621888678     15.7781605220
   P      4.3065135325      5.5876496825     12.8094710676
   P      2.7358798462      0.5146348639     12.7830208884
   P      0.3224675536      3.5664565976     15.7815804513
   O      1.2614156892      8.0485575623     14.4282388950
   O      3.5842950507      6.2630016905     14.0857983767
   O      3.4670005308      1.1702561321     14.0637035046
   O      1.0706569387      2.9992624520     14.4176921782
   O      1.3854647560      7.7675678540     16.8689697549
   O      3.7250640038      6.4129554599     11.6303355075
   O      3.3170220168      1.3465535585     11.6116386526
   O      0.9119833136      2.6551868542     16.8487542405
   O      0.8306655681      5.0513224811     15.7675402889
   O      3.2818519523      9.1728688226     12.8202232845
   O      3.4818727654      3.4924021536     15.6210179922
   O      1.1998796019      0.5887000223     12.8924548372
   O      1.1452176551      5.6487063547     12.9116010592
   O      3.7520606683      4.1324902469     12.8466641497
   O      1.4442817599     10.1310313364     15.7447143899
   O      3.5238106209      8.6165592797     15.6723461766
  Ni      6.9645491580      7.7744991150      1.1559810360
  Ni      9.3092185740      7.2051492680      4.1240823220
  Ni      4.7587979190      2.7170293120      1.1559810370
  Ni      7.1034673350      2.1476794650      4.1240823230
  Ni      4.6893388310     10.0185590960      2.6400316800
  Ni      7.0340082470      4.9610892900      2.6400316790
   P      6.6579370550      9.0252355940      4.1008002580
   P      9.0026064710      5.9544127890      1.1792631000
   P      7.4100794380      0.8969429860      1.1792631010
   P      5.0654100220      3.9677657910      4.1008002590
   O      5.9210302180      8.3674752860      2.8244644690
   O      8.2656996340      6.6121730970      2.4555988890
   O      8.1469862750      1.5547032940      2.4555988900
   O      5.8023168590      3.3100054830      2.8244644700
   O      6.0687618220      8.1964259050      5.2700633580
   O      8.4134312380      6.7832224780      0.0100000000
   O      7.9992546710      1.7257526750      0.0100000010
   O      5.6545852550      3.1389561020      5.2700633590
   O      5.6113542370      5.4266005210      4.0688980370
   O      7.9560236530      9.5530478630      1.2111653210
   O      8.2190664420      3.9094173680      4.0089148720
   O      5.8743970270      0.9552914090      1.2711484880
   O      5.8489500510      6.0127612130      1.2711484870
   O      8.4566622560      4.4955780590      1.2111653220
   O      6.1119928400      0.3691307180      4.0688980370
   O      8.1936194660      8.9668871710      4.0089148710
  Ni      6.9645491580      7.5817380910      6.9530310260
  Ni      9.3092185740      7.0123882440      9.9211323120
  Ni      4.7587979190      2.5242682880      6.9530310260
  Ni      7.1034673350      1.9549184400      9.9211323130
  Ni      4.6893388310      9.8257980710      8.4370816700
  Ni      7.0340082470      4.7683282660      8.4370816690
   P      6.6579370550      8.8324745700      9.8978502480
   P      9.0026064710      5.7616517650      6.9763130900
   P      7.4100794380      0.7041819610      6.9763130910
   P      5.0654100220      3.7750047670      9.8978502480
   O      5.9210302180      8.1747142620      8.6215144590
   O      8.2656996340      6.4194120730      8.2526488790
   O      8.1469862750      1.3619422690      8.2526488790
   O      5.8023168590      3.1172444590      8.6215144600
   O      6.0687618220      8.0036648810     11.0671133480
   O      8.4134312380      6.5904614540      5.8070499900
   O      7.9992546710      1.5329916500      5.8070499910
   O      5.6545852550      2.9461950770     11.0671133490
   O      5.6113542370      5.2338394960      9.8659480260
   O      7.9560236530      9.3602868380      7.0082153110
   O      8.2190664420      3.7166563430      9.8059648620
   O      5.8743970270      0.7625303850      7.0681984770
   O      5.8489500510      5.8200001880      7.0681984770
   O      8.4566622560      4.3028170350      7.0082153120
   O      6.1119928400      0.1763696930      9.8659480270
   O      8.1936194660      8.7741261460      9.8059648610
  Ni      6.9650388975      7.4078792963     12.7587658618
  Ni     -0.0019380570      6.8640927732     15.6071640978
  Ni      4.7616122696      2.3463391412     12.7679745364
  Ni      7.0014705299      1.7768511021     15.6080686100
  Ni      4.7099100823      9.6263267237     14.2827371918
  Ni      6.9918847889      4.5825171615     14.2745778855
   P      6.6746789538      8.5925258523     15.7252252748
   P      8.9883388747      5.5696032906     12.7853168615
   P      7.4227727237      0.5129940161     12.7748014519
   P      5.0249874405      3.5292074260     15.7762303680
   O      5.9520781890      8.0357970067     14.3828932676
   O      8.2478504092      6.2336695219     14.0570958360
   O      8.1554760072      1.1737334402     14.0569813085
   O      5.7702886019      2.9507809857     14.4094057256
   O      6.1105251639      7.6837377409     16.8163095891
   O      8.4135418512      6.3949534296     11.6071510893
   O      8.0054954898      1.3512404641     11.6089491246
   O      5.5824822887      2.5917895070     16.8392257223
   O      5.5877696578      4.9888304204     15.7362284294
   O      7.9841580021      9.1763837722     12.8041710814
   O      8.1577892121      3.5032159671     15.6447073273
   O      5.8879924790      0.5755162589     12.8857653849
   O      5.8433884092      5.6400506403     12.8932587577
   O      8.4388327136      4.1148521994     12.8235719349
   O      6.1645190442     10.0789406325     15.7414547702
   O      8.2270436801      8.5620340179     15.6268917940
   O      3.5191627622      6.0264133243     17.1378338920
   H      2.7171959371      6.5735475664     17.3330042168
K_POINTS automatic
  4 4 1 0 0 0

CELL_PARAMETERS angstrom
     9.3786776616199994    0.0000000000000000    0.0000000000000000
     0.0000000000000000   10.1149396091007802    0.0000000000000000
     0.0000000000000000    0.0000000000000000   31.8541633382378642

