&control
    calculation = 'scf'
    restart_mode = 'from_scratch'
    nstep = 1
