&CONTROL 
 calculation = 'scf' 
 restart_mode = 'from_scratch'
 nstep = 1 
 outdir= './OER' 
 pseudo_dir = "~/PSEUDO"
dipfield = .TRUE. 
 tefield = .TRUE. 
 wf_collect = .TRUE. 
 disk_io = 'none' 
 tprnfor = .true.
 / 

 &SYSTEM
ibrav = 0
    degauss = 0.01
    ecutrho = 500
    ecutwfc = 50
    nat = 158
    nspin = 2
    ntyp = 5
    occupations = 'smearing'
    smearing = 'gaussian'
    vdw_corr = 'DFT-D'
    starting_magnetization(1) = 1
    starting_magnetization(2) = 1
    starting_magnetization(3) = 1
    starting_magnetization(4) = 1
    edir = 3
    eamp = 0.0
    emaxpos = 0.75
/
&ELECTRONS
    electron_maxstep = 150
    mixing_beta = 0.1
    startingpot = 'atomic'
    startingwfc = 'atomic+random'
    scf_must_converge = .FALSE.
    mixing_mode = 'local-TF'
/
&IONS
    ion_dynamics = 'bfgs'
/
K_POINTS gamma
ATOMIC_SPECIES
  Ni   58.693   Ni.pbe-n-rrkjus_psl.1.0.0.UPF
  Mn   54.938   Mn.pbe-spn-rrkjus_psl.0.3.1.UPF
  P    30.973   P.pbe-n-rrkjus_psl.1.0.0.UPF
  O    15.999   O.pbe-rrkjus.UPF
  H    1.0079   H.pbe-rrkjus.UPF

CELL_PARAMETERS angstrom
9.2112444241  0.0000000000  0.0000000000
  -0.0129335416  10.1848326152  0.0000000000
  0.0000000000  0.0000000000  32.4277113867

ATOMIC_POSITIONS {angstrom} 
  Ni      2.3088626486      7.9090517711     16.0833908113
  Mn      4.4672017988      7.2976717758     13.1706403721
  Ni      0.0913442492      2.8996815476     16.3690232581
  Ni      2.3577407415      2.2505274612     13.1782865428
  Ni      4.5701274362     10.1919175612     14.6903818395
  Ni      2.3008339677      5.0492687453     14.7852646527
   P      1.9087098484      9.2406725937     13.1806598439
   P      4.2626920726      6.1158196907     16.2855418965
   P      2.6531775692      0.9927449966     16.2183471508
   P      0.3569060844      4.0618665128     13.2203849967
   O      1.2259569168      8.5708956903     14.4680804573
   O      3.5292921533      6.6919491425     14.9264530066
   O      3.3420924447      1.6070757695     14.8554171427
   O      1.0647561482      3.3911008092     14.4931337547
   O      1.3683835161      8.4036547477     11.9967609989
   O      3.6839549019      7.0235366495     17.3582821612
   O      3.2545469874      1.8747304836     17.3131287408
   O      0.9086728626      3.2676722329     12.0112118812
   O      0.9050047324      5.5255449242     13.2740469531
   O      3.1716623310      9.7043500832     16.1855595290
   O      3.4343066998      4.0337448109     13.3249123084
   O      1.1130942725      1.0430524565     16.1226436542
   O      1.1779540314      6.2043954255     16.0856106292
   O      3.7733857428      4.6248520500     16.2441608339
   O      1.3600872911      0.5028860791     13.2158171481
   O      3.4442703400      9.1554350493     13.2836697683
  Ni      2.2231694467      7.8387150113     10.2441428465
  Mn      4.5291854344      7.1731699804      7.1554177006
  Ni      0.0413377460      2.7013109415     10.2603882940
  Ni      2.3609701921      2.0961861161      7.1899515213
  Ni      4.5771780352     10.0853977451      8.7130228178
  Ni      2.2920501783      4.9198282349      8.7227910824
   P      1.9122808731      9.1033963050      7.2173607613
   P      4.2159980376      5.9505261806     10.2027763372
   P      2.6546169098      0.8591972239     10.2283303116
   P      0.3619242519      3.9045525432      7.2190763494
   O      1.2036838524      8.4272438680      8.5052521184
   O      3.4908594272      6.6070736456      8.9170848147
   O      3.3665734522      1.5317059583      8.9373367535
   O      1.0719826629      3.2671856475      8.5242565260
   O      1.3843584724      8.2616841471      6.0256206039
   O      3.6610322847      6.7741729017     11.3943375015
   O      3.2083661661      1.6483492612     11.4336134640
   O      0.8980336260      3.1100721707      6.0140979227
   O      0.9070304683      5.3599334065      7.2594010652
   O      3.1870699093      9.5847542147     10.1494340391
   O      3.4373778089      3.8725200731      7.3188449707
   O      1.1269987174      0.9116358839     10.1328903704
   O      1.1379920588      6.0211801669     10.1144969906
   O      3.6884944322      4.4881192592     10.1758874244
   O      1.3600796965      0.3668542279      7.2516081594
   O      3.4345382286      9.0669591473      7.3057765327
  Ni      2.2162947113      7.7473428066      4.2400449238
  Mn      4.5223106990      7.0817977756      1.1513197779
  Ni      0.0344630106      2.6099387368      4.2562903713
  Ni      2.3540954567      2.0048139114      1.1858535986
  Ni      4.5703032998      9.9940255404      2.7089248952
  Ni      2.2851754429      4.8284560302      2.7186931597
   P      1.9054061377      9.0120241003      1.2132628386
   P      4.2091233022      5.8591539759      4.1986784145
   P      2.6477421744      0.7678250192      4.2242323889
   P      0.3550495165      3.8131803385      1.2149784268
   O      1.1968091169      8.3358716633      2.5011541957
   O      3.4839846918      6.5157014409      2.9129868921
   O      3.3596987168      1.4403337535      2.9332388308
   O      1.0651079275      3.1758134427      2.5201586033
   O      1.3774837370      8.1703119424      0.0215226813
   O      3.6541575493      6.6828006969      5.3902395788
   O      3.2014914307      1.5569770565      5.4295155413
   O      0.8911588906      3.0186999659      0.0100000000
   O      0.9001557329      5.2685612018      1.2553031425
   O      3.1801951739      9.4933820100      4.1453361164
   O      3.4305030735      3.7811478683      1.3147470481
   O      1.1201239820      0.8202636792      4.1287924477
   O      1.1311173233      5.9298079622      4.1103990679
   O      3.6816196968      4.3967470545      4.1717895017
   O      1.3532049611      0.2754820232      1.2475102367
   O      3.4276634932      8.9755869426      1.3016786101
  Ni      6.9203785962      7.9490800519     16.0863253272
  Mn      9.0788636315      7.2980568329     13.1703592926
  Ni      4.6002393965      2.8064065580     16.0575509313
  Ni      6.9649270122      2.2439306955     13.1630928930
  Ni      9.1827800245     10.2194848629     14.7158134523
  Ni      6.9272363695      5.0769835145     14.7486295341
   P      6.5219149887      9.2408034685     13.1733257578
   P      8.8535116562      6.1524193304     16.2824256347
   P      7.2457964230      1.0561394014     16.1551270960
   P      4.9671079771      4.0805210438     13.1939770425
   O      5.8333638151      8.5712599941     14.4624074746
   O      8.1223170920      6.7450453469     14.9202772518
   O      7.9495430151      1.6090600255     14.8054039004
   O      5.6931312638      3.4237657986     14.4714042677
   O      5.9847249072      8.3881903202     11.9989327101
   O      8.3080369988      7.0881894201     17.3503272052
   O      7.7704850558      1.9732377691     17.2551451187
   O      5.5168166450      3.2756554659     11.9957412465
   O      5.5165941577      5.5400976689     13.2479410919
   O      7.7541476532      9.7582509209     16.1932610905
   O      8.0310889727      4.0382711045     13.3109361288
   O      5.6977578659      1.0798297886     16.0452344249
   O      5.7998801792      6.1951071715     16.1118190919
   O      8.3013151360      4.6899038356     16.2185740252
   O      5.9520154444      0.4960545394     13.1875100355
   O      8.0559160784      9.1713586747     13.2849196671
  Ni      6.8287916588      7.8387150113     10.2441428465
  Mn      9.1348076465      7.1731699804      7.1554177006
  Ni      4.6469599580      2.7013109415     10.2603882940
  Ni      6.9665924042      2.0961861161      7.1899515213
  Ni      9.1828002472     10.0853977451      8.7130228178
  Ni      6.8976723903      4.9198282349      8.7227910824
   P      6.5179030852      9.1033963050      7.2173607613
   P      8.8216202497      5.9505261806     10.2027763372
   P      7.2602391219      0.8591972239     10.2283303116
   P      4.9675464640      3.9045525432      7.2190763494
   O      5.8093060644      8.4272438680      8.5052521184
   O      8.0964816393      6.6070736456      8.9170848147
   O      7.9721956643      1.5317059583      8.9373367535
   O      5.6776048750      3.2671856475      8.5242565260
   O      5.9899806845      8.2616841471      6.0256206039
   O      8.2666544968      6.7741729017     11.3943375015
   O      7.8139883782      1.6483492612     11.4336134640
   O      5.5036558380      3.1100721707      6.0140979227
   O      5.5126526804      5.3599334065      7.2594010652
   O      7.7926921213      9.5847542147     10.1494340391
   O      8.0430000209      3.8725200731      7.3188449707
   O      5.7326209294      0.9116358839     10.1328903704
   O      5.7436142708      6.0211801669     10.1144969906
   O      8.2941166443      4.4881192592     10.1758874244
   O      5.9657019086      0.3668542279      7.2516081594
   O      8.0401604407      9.0669591473      7.3057765327
  Ni      6.8219169233      7.7473428066      4.2400449238
  Mn      9.1279329110      7.0817977756      1.1513197779
  Ni      4.6400852226      2.6099387368      4.2562903713
  Ni      6.9597176688      2.0048139114      1.1858535986
  Ni      9.1759255118      9.9940255404      2.7089248952
  Ni      6.8907976549      4.8284560302      2.7186931597
   P      6.5110283498      9.0120241003      1.2132628386
   P      8.8147455142      5.8591539759      4.1986784145
   P      7.2533643865      0.7678250192      4.2242323889
   P      4.9606717285      3.8131803385      1.2149784268
   O      5.8024313290      8.3358716633      2.5011541957
   O      8.0896069039      6.5157014409      2.9129868921
   O      7.9653209289      1.4403337535      2.9332388308
   O      5.6707301395      3.1758134427      2.5201586033
   O      5.9831059490      8.1703119424      0.0215226813
   O      8.2597797614      6.6828006969      5.3902395788
   O      7.8071136427      1.5569770565      5.4295155413
   O      5.4967811026      3.0186999659      0.0100000000
   O      5.5057779450      5.2685612018      1.2553031425
   O      7.7858173859      9.4933820100      4.1453361164
   O      8.0361252855      3.7811478683      1.3147470481
   O      5.7257461940      0.8202636792      4.1287924477
   O      5.7367395354      5.9298079622      4.1103990679
   O      8.2872419088      4.3967470545      4.1717895017
   O      5.9588271731      0.2754820232      1.2475102367
   O      8.0332857052      8.9755869426      1.3016786101
   O      1.1775356965      3.6513369154     17.6082567874
   H      1.9564618855      3.0864283960     17.8242513945
