&control
    calculation = 'relax'
    tprnfor = .true.
    tstress = .true.
    pseudo_dir = '~/PSEUDO'
    outdir = './tmp'
    nstep = 1000
    tefield = .true.
    dipfield = .true.
/

&SYSTEM
    ibrav = 0
    degauss = 0.01
    ecutrho = 500
    ecutwfc = 50
    nat = 156
    nspin = 2
    ntyp = 5
    occupations = 'smearing'
    smearing = 'gaussian'
    vdw_corr = 'DFT-D'
    starting_magnetization(1) = 1
    starting_magnetization(2) = 1
    starting_magnetization(3) = 1
    starting_magnetization(4) = 1
    edir = 3
    eamp = 0.0
    emaxpos = 0.75
/

&ELECTRONS
    electron_maxstep = 150
    mixing_beta = 0.1
    startingpot = 'atomic'
    startingwfc = 'atomic+random'
    scf_must_converge = .FALSE.
    mixing_mode = 'local-TF'
/

&IONS
    ion_dynamics = 'bfgs'
/

K_POINTS gamma

ATOMIC_SPECIES
  Ni   58.693   Ni.pbe-n-rrkjus_psl.1.0.0.UPF
  Mn   54.938   Mn.pbe-spn-rrkjus_psl.0.3.1.UPF
  P    30.973   P.pbe-n-rrkjus_psl.1.0.0.UPF
  O    15.999   O.pbe-rrkjus.UPF
  H    1.0079   H.pbe-rrkjus.UPF

CELL_PARAMETERS angstrom
  9.4474829294  0.0000000000  0.0000000000
  0.0305814238  10.2221506046  0.0000000000
  0.0000000000  0.0000000000  32.1655934253

ATOMIC_POSITIONS angstrom
  Ni  2.3129220139  7.8972772973  1.1497545064  0 0 0
  Ni  4.6490610887  7.3047442111  4.1936894858  0 0 0
  Mn  0.1067761731  2.7576721292  1.0963917518  0 0 0
  Ni  2.4432273613  2.1432234008  4.1735462030  0 0 0
  Ni  9.4662145937  10.1142894701  2.6789495920  0 0 0
  Ni  2.3789698370  5.0440683314  2.6674809569  0 0 0
  Ni  6.9920813749  7.8878789031  1.1579062906  0 0 0
  Mn  9.3406898946  7.2753604651  4.2439743133  0 0 0
  Mn  4.8308954384  2.7819693590  1.0948616820  0 0 0
  Ni  7.1431070376  2.1387615578  4.1784309036  0 0 0
  Ni  4.7326084235  10.1203689183  2.6666558403  0 0 0
  Ni  7.0827571848  5.0417436272  2.6777908576  0 0 0
  P  2.0291231354  9.1516784506  4.1405151098  0 0 0
  P  4.3528117572  6.0859892383  1.1954218952  0 0 0
  P  2.7239152584  0.8629939071  1.1958169163  0 0 0
  P  0.3863836581  3.9885723945  4.1143414694  0 0 0
  O  1.3045687173  8.5101215718  2.8561821687  0 0 0
  O  3.6065187097  6.7206402390  2.4795955832  0 0 0
  O  3.4373384109  1.5196724811  2.4794137179  0 0 0
  O  1.1408481055  3.3498458294  2.8542917983  0 0 0
  O  1.4664322300  8.3114829540  5.3143601271  0 0 0
  O  3.8005527481  6.9136385589  0.0100000000  0 0 0
  O  3.2639580632  1.7231876877  0.0248805985  0 0 0
  O  0.9608270792  3.1601630306  5.2857321047  0 0 0
  O  0.9164761464  5.4518725145  4.1063056435  0 0 0
  O  3.3388968874  9.6399059777  1.2004979284  0 0 0
  O  3.5692814975  3.9418697628  4.0255988330  0 0 0
  O  1.1867656938  0.9013490877  1.2963392800  0 0 0
  O  1.1640886725  6.1242569315  1.3086390258  0 0 0
  O  3.8059495922  4.6272192177  1.2184590528  0 0 0
  O  1.4275620920  0.3831464040  4.1285299573  0 0 0
  O  3.5678946412  9.0925343002  4.0512308031  0 0 0
  P  6.6933239351  9.1471654079  4.1517445120  0 0 0
  P  9.0725636199  6.0555136571  1.2210574959  0 0 0
  P  7.4405864459  0.8500557470  1.2037018964  0 0 0
  P  5.1065078778  4.0365506749  4.1233117458  0 0 0
  O  5.9741939775  8.4816003245  2.8688888472  0 0 0
  O  8.3228984798  6.7000803377  2.4819585481  0 0 0
  O  8.1541738250  1.4995408786  2.4908163165  0 0 0
  O  5.8598774446  3.3806679847  2.8665919296  0 0 0
  O  6.1400698649  8.2878954395  5.3197941026  0 0 0
  O  8.4934485675  6.8810405934  0.0514189482  0 0 0
  O  7.9815748019  1.7063608711  0.0289643815  0 0 0
  O  5.6903095574  3.2051642990  5.2910339913  0 0 0
  O  5.6309097860  5.5042271625  4.1061970179  0 0 0
  O  8.0445535812  9.6215199712  1.2108195277  0 0 0
  O  8.2945500610  3.9196666124  4.0255568094  0 0 0
  O  5.9057721073  0.9042847376  1.3008190970  0 0 0
  O  5.8930128638  6.1234667375  1.3022125571  0 0 0
  O  8.5386786436  4.5946304697  1.2351206656  0 0 0
  O  6.1018811736  0.3803315516  4.1360884007  0 0 0
  O  8.2310575070  9.1028906560  4.0488489665  0 0 0
  Ni  2.2865932276  7.7185113740  7.0776541678  0 0 0
  Ni  4.6227323024  7.1259782878  10.1215891471  0 0 0
  Mn  0.0804473868  2.5789062059  7.0242914132  0 0 0
  Ni  2.4168985750  1.9644574775  10.1014458644  0 0 0
  Ni  9.4398858074  9.9355235468  8.6068492533  0 0 0
  Ni  2.3526410507  4.8653024081  8.5953806183  0 0 0
  Ni  6.9657525885  7.7091129798  7.0858059520  0 0 0
  Mn  9.3143611083  7.0965945418  10.1718739746  0 0 0
  Mn  4.8045666521  2.6032034357  7.0227613433  0 0 0
  Ni  7.1167782512  1.9599956345  10.1063305650  0 0 0
  Ni  4.7062796372  9.9416029950  8.5945555017  0 0 0
  Ni  7.0564283985  4.8629777039  8.6056905189  0 0 0
  P  2.0027943491  8.9729125273  10.0684147711  0 0 0
  P  4.3264829709  5.9072233150  7.1233215566  0 0 0
  P  2.6975864721  0.6842279838  7.1237165776  0 0 0
  P  0.3600548718  3.8098064712  10.0422411307  0 0 0
  O  1.2782399310  8.3313556485  8.7840818301  0 0 0
  O  3.5801899233  6.5418743157  8.4074952445  0 0 0
  O  3.4110096246  1.3409065578  8.4073133792  0 0 0
  O  1.1145193192  3.1710799061  8.7821914596  0 0 0
  O  1.4401034437  8.1327170307  11.2422597885  0 0 0
  O  3.7742239617  6.7348726356  5.9378996613  0 0 0
  O  3.2376292769  1.5444217644  5.9527802599  0 0 0
  O  0.9344982929  2.9813971073  11.2136317660  0 0 0
  O  0.8901473601  5.2731065912  10.0342053048  0 0 0
  O  3.3125681011  9.4611400544  7.1283975898  0 0 0
  O  3.5429527111  3.7631038396  9.9534984944  0 0 0
  O  1.1604369075  0.7225831644  7.2242389413  0 0 0
  O  1.1377598861  5.9454910082  7.2365386871  0 0 0
  O  3.7796208059  4.4484532944  7.1463587142  0 0 0
  O  1.4012333057  0.2043804807  10.0564296187  0 0 0
  O  3.5415658549  8.9137683769  9.9791304644  0 0 0
  P  6.6669951488  8.9683994847  10.0796441734  0 0 0
  P  9.0462348336  5.8767477338  7.1489571572  0 0 0
  P  7.4142576596  0.6712898237  7.1316015577  0 0 0
  P  5.0801790915  3.8577847517  10.0512114071  0 0 0
  O  5.9478651911  8.3028344013  8.7967885085  0 0 0
  O  8.2965696935  6.5213144144  8.4098582094  0 0 0
  O  8.1278450387  1.3207749553  8.4187159778  0 0 0
  O  5.8335486583  3.2019020614  8.7944915909  0 0 0
  O  6.1137410786  8.1091295162  11.2476937640  0 0 0
  O  8.4671197812  6.7022746701  5.9793186095  0 0 0
  O  7.9552460155  1.5275949478  5.9568640428  0 0 0
  O  5.6639807711  3.0263983758  11.2189336526  0 0 0
  O  5.6045809997  5.3254612392  10.0340966792  0 0 0
  O  8.0182247949  9.4427540480  7.1387191890  0 0 0
  O  8.2682212747  3.7409006891  9.9534564707  0 0 0
  O  5.8794433210  0.7255188143  7.2287187584  0 0 0
  O  5.8666840775  5.9447008142  7.2301122184  0 0 0
  O  8.5123498573  4.4158645464  7.1630203269  0 0 0
  O  6.0755523873  0.2015656283  10.0639880620  0 0 0
  O  8.2047287207  8.9241247327  9.9767486279  0 0 0
  Ni  2.2602644412  7.5397454508  13.0055538291
  Ni  4.5964035161  6.9472123645  16.0494888084
  Mn  0.0541186005  2.4001402826  12.9521910745
  Ni  2.3905697887  1.7856915542  16.0293455257
  Ni  9.4135570211  9.7567576235  14.5347489147
  Ni  2.3263122643  4.6865364848  14.5232802796
  Ni  6.9394238022  7.5303470565  13.0137056133
  Mn  9.2880323220  6.9178286185  16.0997736360
  Mn  4.7782378658  2.4244375125  12.9506610047
  Ni  7.0904494649  1.7812297112  16.0342302263
  Ni  4.6799508509  9.7628370717  14.5224551630
  Ni  7.0300996122  4.6842117806  14.5335901802
  P  1.9764655628  8.7941466040  15.9963144325
  P  4.3001541846  5.7284573917  13.0512212179
  P  2.6712576858  0.5054620606  13.0516162389
  P  0.3337260855  3.6310405479  15.9701407920
  O  1.2519111447  8.1525897252  14.7119814914
  O  3.5538611370  6.3631083924  14.3353949059
  O  3.3846808383  1.1621406345  14.3352130405
  O  1.0881905329  2.9923139828  14.7100911209
  O  1.4137746574  7.9539511074  17.1701594498
  O  3.7478951754  6.5561067123  11.8657993227
  O  3.2113004906  1.3656558411  11.8806799212
  O  0.9081695066  2.8026311840  17.1415314274
  O  0.8638185738  5.0943406679  15.9621049661
  O  3.2862393148  9.2823741311  13.0562972511
  O  3.5166239248  3.5843379163  15.8813981557
  O  1.1341081212  0.5438172412  13.1521386026
  O  1.1114310998  5.7667250849  13.1644383485
  O  3.7532920196  4.2696873711  13.0742583755
  O  1.3749045194  0.0256145574  15.9843292800
  O  3.5152370686  8.7350024536  15.9070301258
  P  6.6406663624  8.7896335614  16.0075438347
  P  9.0199060473  5.6979818105  13.0768568186
  P  7.3879288733  0.4925239004  13.0595012190
  P  5.0538503052  3.6790188284  15.9791110684
  O  5.9215364048  8.1240684780  14.7246881698
  O  8.2702409072  6.3425484912  14.3377578707
  O  8.1015162524  1.1420090320  14.3466156392
  O  5.8072198720  3.0231361382  14.7223912523
  O  6.0874122923  7.9303635929  17.1755934253
  O  8.4407909948  6.5235087468  11.9072182708
  O  7.9289172292  1.3488290245  11.8847637041
  O  5.6376519848  2.8476324525  17.1468333140
  O  5.5782522134  5.1466953159  15.9619963406
  O  7.9918960086  9.2639881247  13.0666188503
  O  8.2418924884  3.5621347659  15.8813561321
  O  5.8531145347  0.5467528910  13.1566184197
  O  5.8403552912  5.7659348909  13.1580118798
  O  8.4860210710  4.2370986231  13.0909199882
  O  6.0492236010  0.0227997050  15.9918877234
  O  8.1783999343  8.7453588095  15.9046482892
