&control
    calculation = 'relax'
    tprnfor = .true.
    tstress = .true.
    pseudo_dir = '~/PSEUDO'
    outdir = './tmp'
    nstep = 1000
    tefield = .true.
    dipfield = .true.
/

&SYSTEM
    ibrav = 0
    degauss = 0.01
    ecutrho = 500
    ecutwfc = 50
    nat = 158
    nspin = 2
    ntyp = 5
    occupations = 'smearing'
    smearing = 'gaussian'
    vdw_corr = 'DFT-D'
    starting_magnetization(1) = 1
    starting_magnetization(2) = 1
    starting_magnetization(3) = 1
    starting_magnetization(4) = 1
    edir = 3
    eamp = 0.0
    emaxpos = 0.75
/

&ELECTRONS
    electron_maxstep = 150
    mixing_beta = 0.1
    startingpot = 'atomic'
    startingwfc = 'atomic+random'
    scf_must_converge = .FALSE.
    mixing_mode = 'local-TF'
/

&IONS
    ion_dynamics = 'bfgs'
/

K_POINTS gamma

ATOMIC_SPECIES
  Ni   58.693   Ni.pbe-n-rrkjus_psl.1.0.0.UPF
  Mn   54.938   Mn.pbe-spn-rrkjus_psl.0.3.1.UPF
  P    30.973   P.pbe-n-rrkjus_psl.1.0.0.UPF
  O    15.999   O.pbe-rrkjus.UPF
  H    1.0079   H.pbe-rrkjus.UPF

CELL_PARAMETERS angstrom
9.2112444241  0.0000000000  0.0000000000
  -0.0129335416  10.1848326152  0.0000000000
  0.0000000000  0.0000000000  32.4277113867

ATOMIC_POSITIONS angstrom
Ni  2.2300441820999999  7.9300872160999996  1.1994706175000001  0 0 0
Mn  4.5360601697999998  7.2645421850999998  4.2881957634000001  0 0 0
Ni  0.0482124814000000  2.7926831462999999  1.1832251701000001  0 0 0
Ni  2.3678449275000002  2.1875583209000000  4.2536619427000000  0 0 0
Ni  4.5840527705999996  10.1767699498000006  2.7305906462000000  0 0 0
Ni  2.2989249137000001  5.0112004396999996  2.7208223816000001  0 0 0
P   1.9191556085000001  9.1947685097999994  4.2262527028000001  0 0 0
P   4.2228727729999997  6.0418983852999997  1.2408371268000000  0 0 0
P   2.6614916451999999  0.9505694287000001  1.2152831525000001  0 0 0
P   0.3687989873000000  3.9959247479000002  4.2245371146000004  0 0 0
O   1.2105585878000000  8.5186160728000004  2.9383613456000002  0 0 0
O   3.4977341627000000  6.6984458503999997  2.5265286492999999  0 0 0
O   3.3734481877000002  1.6230781630000000  2.5062767105999999  0 0 0
O   1.0788573983000000  3.3585578522000001  2.9193569380000000  0 0 0
O   1.3912332078000000  8.3530563517999994  5.4179928601000000  0 0 0
O   3.6679070200999999  6.8655451063999999  0.0492759625000000  0 0 0
O   3.2152409015000001  1.7397214659000000  0.0100000000000000  0 0 0
O   0.9049083614000000  3.2014443753999999  5.4295155412999998  0 0 0
O   0.9139052036999999  5.4513056111999996  4.1842123987999997  0 0 0
O   3.1939446447000002  9.6761264194999992  1.2941794249000000  0 0 0
O   3.4442525442999998  3.9638922777999999  4.1247684933000004  0 0 0
O   1.1338734528000001  1.0030080886999999  1.3107230936000001  0 0 0
O   1.1448667941999999  6.1125523716999997  1.3291164734000001  0 0 0
O   3.6953691676000000  4.5794914639000002  1.2677260396000001  0 0 0
O   1.3669544319000000  0.4582264326000000  4.1920053047000003  0 0 0
O   3.4414129640000000  9.1583313519999994  4.1378369312999999  0 0 0
Ni  2.2231694467000001  7.8387150112999997  7.2035685402000000  0 0 0
Mn  4.5291854344000004  7.1731699804000000  10.2922936861000007  0 0 0
Ni  0.0413377460000000  2.7013109415000001  7.1873230926999998  0 0 0
Ni  2.3609701920999999  2.0961861161000002  10.2577598654000006  0 0 0
Ni  4.5771780352000002  10.0853977450999999  8.7346885688999993  0 0 0
Ni  2.2920501782999998  4.9198282348999998  8.7249203042999994  0 0 0
P   1.9122808731000001  9.1033963050000004  10.2303506253999998  0 0 0
P   4.2159980376000004  5.9505261805999998  7.2449350494999996  0 0 0
P   2.6546169098000001  0.8591972239000000  7.2193810751000003  0 0 0
P   0.3619242519000000  3.9045525431999999  10.2286350373000001  0 0 0
O   1.2036838524000000  8.4272438679999997  8.9424592683000004  0 0 0
O   3.4908594272000002  6.6070736455999999  8.5306265719999992  0 0 0
O   3.3665734521999999  1.5317059582999999  8.5103746331999996  0 0 0
O   1.0719826629000000  3.2671856474999998  8.9234548606999997  0 0 0
O   1.3843584724000000  8.2616841471000004  11.4220907827999998  0 0 0
O   3.6610322847000001  6.7741729017000001  6.0533738852000001  0 0 0
O   3.2083661660999998  1.6483492611999999  6.0140979227000004  0 0 0
O   0.8980336260000000  3.1100721707000001  11.4336134640000004  0 0 0
O   0.9070304683000000  5.3599334064999997  10.1883103214999995  0 0 0
O   3.1870699092999999  9.5847542147000002  7.2982773476000000  0 0 0
O   3.4373778089000000  3.8725200731000000  10.1288664159999993  0 0 0
O   1.1269987174000000  0.9116358839000001  7.3148210162999998  0 0 0
O   1.1379920588000001  6.0211801668999998  7.3332143960999998  0 0 0
O   3.6884944322000002  4.4881192592000003  7.2718239623000001  0 0 0
O   1.3600796964999999  0.3668542279000000  10.1961032273000001  0 0 0
O   3.4345382286000001  9.0669591473000004  10.1419348540000005  0 0 0
Ni  2.2162947113000002  7.7473428065999999  13.2076664629000007
Mn  4.5223106990000002  7.0817977756000001  16.2963916088000005
Ni  0.0344630106000000  2.6099387368000002  13.1914210153999996
Ni  2.3540954567000001  2.0048139113999999  16.2618577880999986
Ni  4.5703032997999999  9.9940255403999991  14.7387864915000009
Ni  2.2851754429000000  4.8284560301999999  14.7290182269999992
P   1.9054061377000000  9.0120241002999997  16.2344485481000014
P   4.2091233022000001  5.8591539759000000  13.2490329722000002
P   2.6477421743999998  0.7678250192000000  13.2234789977999991
P   0.3550495165000000  3.8131803385000000  16.2327329599000016
O   1.1968091168999999  8.3358716633000007  14.9465571910000001
O   3.4839846917999999  6.5157014409000000  14.5347244946000007
O   3.3596987168000001  1.4403337535000000  14.5144725558999994
O   1.0651079274999999  3.1758134427000000  14.9275527833999995
O   1.3774837369999999  8.1703119423999997  17.4261887054000013
O   3.6541575492999998  6.6828006969000002  12.0574718079000007
O   3.2014914307000000  1.5569770565000001  12.0181958453999993
O   0.8911588906000000  3.0186999658999998  17.4377113866999984
O   0.9001557328999999  5.2685612017999999  16.1924082441999992
O   3.1801951739000001  9.4933820099999995  13.3023752703000007
O   3.4305030735000002  3.7811478683000002  16.1329643386000008
O   1.1201239820000000  0.8202636792000000  13.3189189389999996
O   1.1311173233000000  5.9298079621999999  13.3373123188000005
O   3.6816196967999999  4.3967470544999996  13.2759218850000007
O   1.3532049611000001  0.2754820232000000  16.2002011500000016
O   3.4276634931999999  8.9755869425999997  16.1460327765999985
Ni  6.8356663942000004  7.9300872160999996  1.1994706175000001  0 0 0
Mn  9.1416823819000008  7.2645421850999998  4.2881957634000001  0 0 0
Ni  4.6538346934000003  2.7926831462999999  1.1832251701000001  0 0 0
Ni  6.9734671396000003  2.1875583209000000  4.2536619427000000  0 0 0
Ni  9.1896749826999997  10.1767699498000006  2.7305906462000000  0 0 0
Ni  6.9045471257999997  5.0112004396999996  2.7208223816000001  0 0 0
P   6.5247778205999998  9.1947685097999994  4.2262527028000001  0 0 0
P   8.8284949851000007  6.0418983852999997  1.2408371268000000  0 0 0
P   7.2671138573000000  0.9505694287000001  1.2152831525000001  0 0 0
P   4.9744211994000000  3.9959247479000002  4.2245371146000004  0 0 0
O   5.8161807997999997  8.5186160728000004  2.9383613456000002  0 0 0
O   8.1033563747000006  6.6984458503999997  2.5265286492999999  0 0 0
O   7.9790703997000003  1.6230781630000000  2.5062767105999999  0 0 0
O   5.6844796104000004  3.3585578522000001  2.9193569380000000  0 0 0
O   5.9968554199000002  8.3530563517999994  5.4179928601000000  0 0 0
O   8.2735292321999996  6.8655451063999999  0.0492759625000000  0 0 0
O   7.8208631135999997  1.7397214659000000  0.0100000000000000  0 0 0
O   5.5105305733999996  3.2014443753999999  5.4295155412999998  0 0 0
O   5.5195274157999998  5.4513056111999996  4.1842123987999997  0 0 0
O   7.7995668567000003  9.6761264194999992  1.2941794249000000  0 0 0
O   8.0498747563999995  3.9638922777999999  4.1247684933000004  0 0 0
O   5.7394956647999997  1.0030080886999999  1.3107230936000001  0 0 0
O   5.7504890061999996  6.1125523716999997  1.3291164734000001  0 0 0
O   8.3009913796999992  4.5794914639000002  1.2677260396000001  0 0 0
O   5.9725766440000001  0.4582264326000000  4.1920053047000003  0 0 0
O   8.0470351760999996  9.1583313519999994  4.1378369312999999  0 0 0
Ni  6.8287916588000002  7.8387150112999997  7.2035685402000000  0 0 0
Mn  9.1348076465000005  7.1731699804000000  10.2922936861000007  0 0 0
Ni  4.6469599580000001  2.7013109415000001  7.1873230926999998  0 0 0
Ni  6.9665924042000000  2.0961861161000002  10.2577598654000006  0 0 0
Ni  9.1828002471999994  10.0853977450999999  8.7346885688999993  0 0 0
Ni  6.8976723903000003  4.9198282348999998  8.7249203042999994  0 0 0
P   6.5179030852000004  9.1033963050000004  10.2303506253999998  0 0 0
P   8.8216202497000005  5.9505261805999998  7.2449350494999996  0 0 0
P   7.2602391218999998  0.8591972239000000  7.2193810751000003  0 0 0
P   4.9675464639999998  3.9045525431999999  10.2286350373000001  0 0 0
O   5.8093060644000003  8.4272438679999997  8.9424592683000004  0 0 0
O   8.0964816393000003  6.6070736455999999  8.5306265719999992  0 0 0
O   7.9721956643000000  1.5317059582999999  8.5103746331999996  0 0 0
O   5.6776048750000001  3.2671856474999998  8.9234548606999997  0 0 0
O   5.9899806844999999  8.2616841471000004  11.4220907827999998  0 0 0
O   8.2666544967999993  6.7741729017000001  6.0533738852000001  0 0 0
O   7.8139883782000004  1.6483492611999999  6.0140979227000004  0 0 0
O   5.5036558380000002  3.1100721707000001  11.4336134640000004  0 0 0
O   5.5126526803999996  5.3599334064999997  10.1883103214999995  0 0 0
O   7.7926921213000000  9.5847542147000002  7.2982773476000000  0 0 0
O   8.0430000208999992  3.8725200731000000  10.1288664159999993  0 0 0
O   5.7326209294000003  0.9116358839000001  7.3148210162999998  0 0 0
O   5.7436142708000002  6.0211801668999998  7.3332143960999998  0 0 0
O   8.2941166443000007  4.4881192592000003  7.2718239623000001  0 0 0
O   5.9657019085999998  0.3668542279000000  10.1961032273000001  0 0 0
O   8.0401604406999994  9.0669591473000004  10.1419348540000005  0 0 0
Ni  6.8219169232999999  7.7473428065999999  13.2076664629000007
Mn  9.1279329110000003  7.0817977756000001  16.2963916088000005
Ni  4.6400852225999998  2.6099387368000002  13.1914210153999996
Ni  6.9597176687999998  2.0048139113999999  16.2618577880999986
Ni  9.1759255117999992  9.9940255403999991  14.7387864915000009
Ni  6.8907976549000001  4.8284560301999999  14.7290182269999992
P   6.5110283498000001  9.0120241002999997  16.2344485481000014
P   8.8147455142000002  5.8591539759000000  13.2490329722000002
P   7.2533643865000004  0.7678250192000000  13.2234789977999991
P   4.9606717285000004  3.8131803385000000  16.2327329599000016
O   5.8024313290000000  8.3358716633000007  14.9465571910000001
O   8.0896069039000000  6.5157014409000000  14.5347244946000007
O   7.9653209288999998  1.4403337535000000  14.5144725558999994
O   5.6707301394999998  3.1758134427000000  14.9275527833999995
O   5.9831059489999996  8.1703119423999997  17.4261887054000013
O   8.2597797614000008  6.6828006969000002  12.0574718079000007
O   7.8071136427000001  1.5569770565000001  12.0181958453999993
O   5.4967811026000000  3.0186999658999998  17.4377113866999984
O   5.5057779450000002  5.2685612017999999  16.1924082441999992
O   7.7858173858999997  9.4933820099999995  13.3023752703000007
O   8.0361252855000007  3.7811478683000002  16.1329643386000008
O   5.7257461940000001  0.8202636792000000  13.3189189389999996
O   5.7367395353999999  5.9298079621999999  13.3373123188000005
O   8.2872419088000004  4.3967470544999996  13.2759218850000007
O   5.9588271731000004  0.2754820232000000  16.2002011500000016
O   8.0332857052000008  8.9755869425999997  16.1460327765999985
O   3.4172925792  6.0500503639  17.3791986643
H   3.1658898297  5.1134293807  17.2389914884
