&CONTROL 
 calculation = 'scf' 
 restart_mode = 'from_scratch'
 nstep = 1 
 outdir= './OER' 
 pseudo_dir = "~/PSEUDO"
dipfield = .TRUE. 
 tefield = .TRUE. 
 wf_collect = .TRUE. 
 disk_io = 'none' 
 tprnfor = .true.
 / 

 &SYSTEM
ibrav = 0
    degauss = 0.01
    ecutrho = 500
    ecutwfc = 50
    nat = 158
    nspin = 2
    ntyp = 5
    occupations = 'smearing'
    smearing = 'gaussian'
    vdw_corr = 'DFT-D'
    starting_magnetization(1) = 1
    starting_magnetization(2) = 1
    starting_magnetization(3) = 1
    starting_magnetization(4) = 1
    edir = 3
    eamp = 0.0
    emaxpos = 0.75
/

&ELECTRONS
    electron_maxstep = 150
    mixing_beta = 0.1
    startingpot = 'atomic'
    startingwfc = 'atomic+random'
    scf_must_converge = .FALSE.
    mixing_mode = 'local-TF'
/

&IONS
    ion_dynamics = 'bfgs'
/

K_POINTS gamma

ATOMIC_SPECIES
  Ni   58.693   Ni.pbe-n-rrkjus_psl.1.0.0.UPF
  Mn   54.938   Mn.pbe-spn-rrkjus_psl.0.3.1.UPF
  P    30.973   P.pbe-n-rrkjus_psl.1.0.0.UPF
  O    15.999   O.pbe-rrkjus.UPF
  H    1.0079   H.pbe-rrkjus.UPF

CELL_PARAMETERS angstrom
9.4474829294  0.0000000000  0.0000000000
  0.0305814238  10.2221506046  0.0000000000
  0.0000000000  0.0000000000  32.1655934253

ATOMIC_POSITIONS {angstrom} 
  Ni      2.3129220139      7.8972772973      1.1497545064
  Ni      4.6490610887      7.3047442111      4.1936894858
  Mn      0.1067761731      2.7576721292      1.0963917518
  Ni      2.4432273613      2.1432234008      4.1735462030
  Ni      9.4662145937     10.1142894701      2.6789495920
  Ni      2.3789698370      5.0440683314      2.6674809569
  Ni      6.9920813749      7.8878789031      1.1579062906
  Mn      9.3406898946      7.2753604651      4.2439743133
  Mn      4.8308954384      2.7819693590      1.0948616820
  Ni      7.1431070376      2.1387615578      4.1784309036
  Ni      4.7326084235     10.1203689183      2.6666558403
  Ni      7.0827571848      5.0417436272      2.6777908576
   P      2.0291231354      9.1516784506      4.1405151098
   P      4.3528117572      6.0859892383      1.1954218952
   P      2.7239152584      0.8629939071      1.1958169163
   P      0.3863836581      3.9885723945      4.1143414694
   O      1.3045687173      8.5101215718      2.8561821687
   O      3.6065187097      6.7206402390      2.4795955832
   O      3.4373384109      1.5196724811      2.4794137179
   O      1.1408481055      3.3498458294      2.8542917983
   O      1.4664322300      8.3114829540      5.3143601271
   O      3.8005527481      6.9136385589      0.0100000000
   O      3.2639580632      1.7231876877      0.0248805985
   O      0.9608270792      3.1601630306      5.2857321047
   O      0.9164761464      5.4518725145      4.1063056435
   O      3.3388968874      9.6399059777      1.2004979284
   O      3.5692814975      3.9418697628      4.0255988330
   O      1.1867656938      0.9013490877      1.2963392800
   O      1.1640886725      6.1242569315      1.3086390258
   O      3.8059495922      4.6272192177      1.2184590528
   O      1.4275620920      0.3831464040      4.1285299573
   O      3.5678946412      9.0925343002      4.0512308031
   P      6.6933239351      9.1471654079      4.1517445120
   P      9.0725636199      6.0555136571      1.2210574959
   P      7.4405864459      0.8500557470      1.2037018964
   P      5.1065078778      4.0365506749      4.1233117458
   O      5.9741939775      8.4816003245      2.8688888472
   O      8.3228984798      6.7000803377      2.4819585481
   O      8.1541738250      1.4995408786      2.4908163165
   O      5.8598774446      3.3806679847      2.8665919296
   O      6.1400698649      8.2878954395      5.3197941026
   O      8.4934485675      6.8810405934      0.0514189482
   O      7.9815748019      1.7063608711      0.0289643815
   O      5.6903095574      3.2051642990      5.2910339913
   O      5.6309097860      5.5042271625      4.1061970179
   O      8.0445535812      9.6215199712      1.2108195277
   O      8.2945500610      3.9196666124      4.0255568094
   O      5.9057721073      0.9042847376      1.3008190970
   O      5.8930128638      6.1234667375      1.3022125571
   O      8.5386786436      4.5946304697      1.2351206656
   O      6.1018811736      0.3803315516      4.1360884007
   O      8.2310575070      9.1028906560      4.0488489665
  Ni      2.2865932276      7.7185113740      7.0776541678
  Ni      4.6227323024      7.1259782878     10.1215891471
  Mn      0.0804473868      2.5789062059      7.0242914132
  Ni      2.4168985750      1.9644574775     10.1014458644
  Ni      9.4398858074      9.9355235468      8.6068492533
  Ni      2.3526410507      4.8653024081      8.5953806183
  Ni      6.9657525885      7.7091129798      7.0858059520
  Mn      9.3143611083      7.0965945418     10.1718739746
  Mn      4.8045666521      2.6032034357      7.0227613433
  Ni      7.1167782512      1.9599956345     10.1063305650
  Ni      4.7062796372      9.9416029950      8.5945555017
  Ni      7.0564283985      4.8629777039      8.6056905189
   P      2.0027943491      8.9729125273     10.0684147711
   P      4.3264829709      5.9072233150      7.1233215566
   P      2.6975864721      0.6842279838      7.1237165776
   P      0.3600548718      3.8098064712     10.0422411307
   O      1.2782399310      8.3313556485      8.7840818301
   O      3.5801899233      6.5418743157      8.4074952445
   O      3.4110096246      1.3409065578      8.4073133792
   O      1.1145193192      3.1710799061      8.7821914596
   O      1.4401034437      8.1327170307     11.2422597885
   O      3.7742239617      6.7348726356      5.9378996613
   O      3.2376292769      1.5444217644      5.9527802599
   O      0.9344982929      2.9813971073     11.2136317660
   O      0.8901473601      5.2731065912     10.0342053048
   O      3.3125681011      9.4611400544      7.1283975898
   O      3.5429527111      3.7631038396      9.9534984944
   O      1.1604369075      0.7225831644      7.2242389413
   O      1.1377598861      5.9454910082      7.2365386871
   O      3.7796208059      4.4484532944      7.1463587142
   O      1.4012333057      0.2043804807     10.0564296187
   O      3.5415658549      8.9137683769      9.9791304644
   P      6.6669951488      8.9683994847     10.0796441734
   P      9.0462348336      5.8767477338      7.1489571572
   P      7.4142576596      0.6712898237      7.1316015577
   P      5.0801790915      3.8577847517     10.0512114071
   O      5.9478651911      8.3028344013      8.7967885085
   O      8.2965696935      6.5213144144      8.4098582094
   O      8.1278450387      1.3207749553      8.4187159778
   O      5.8335486583      3.2019020614      8.7944915909
   O      6.1137410786      8.1091295162     11.2476937640
   O      8.4671197812      6.7022746701      5.9793186095
   O      7.9552460155      1.5275949478      5.9568640428
   O      5.6639807711      3.0263983758     11.2189336526
   O      5.6045809997      5.3254612392     10.0340966792
   O      8.0182247949      9.4427540480      7.1387191890
   O      8.2682212747      3.7409006891      9.9534564707
   O      5.8794433210      0.7255188143      7.2287187584
   O      5.8666840775      5.9447008142      7.2301122184
   O      8.5123498573      4.4158645464      7.1630203269
   O      6.0755523873      0.2015656283     10.0639880620
   O      8.2047287207      8.9241247327      9.9767486279
  Ni      2.2532041500      7.5368188757     13.0268450951
  Ni      4.7023564562      6.9673133944     15.8776158941
  Mn      0.0699721912      2.4356966818     12.9850823499
  Ni      2.3032554544      1.8461664286     15.8974147993
  Ni      9.4536206822      9.7558811124     14.5536894912
  Ni      2.3051778335      4.6930450778     14.5502493443
  Ni      6.9669785455      7.5431502324     13.0160449814
  Mn      9.4161198635      6.9595608590     16.1697719036
  Mn      4.7960677657      2.4468825177     12.9735783911
  Ni      7.0137041554      1.8568961228     15.9023705542
  Ni      4.7216852586      9.7893691445     14.5315131992
  Ni      7.0247922428      4.7170375693     14.6109976069
   P      2.0260585775      8.7662240025     16.0565982482
   P      4.3004521052      5.7164088770     13.0394289021
   P      2.6921584627      0.5099702198     13.0418528892
   P      0.3185960989      3.6222703988     16.0657902252
   O      1.2330883502      8.0965237389     14.7734599634
   O      3.5498746648      6.3579187469     14.3183930590
   O      3.4140593872      1.1802239208     14.3142963770
   O      1.0667804607      3.0467355613     14.7114670046
   O      1.4929153821      7.9118324962     17.2033580603
   O      3.7453329358      6.5451910869     11.8548503976
   O      3.2361976952      1.3548365534     11.8609181474
   O      0.8989057692      2.7147180528     17.1404860083
   O      0.8651472603      5.1010367707     15.9906039843
   O      3.2845568618      9.2804315078     13.0718080197
   O      3.4831961965      3.5804241357     15.8904505821
   O      1.1549620279      0.5709760308     13.1608957293
   O      1.1139701341      5.7686457714     13.1780320627
   O      3.7472193837      4.2606893864     13.0624057942
   O      1.4613606690      0.0148343790     15.9989796988
   O      3.5647548703      8.7075400535     15.8835064659
   P      6.6968953377      8.7867566798     16.0197334540
   P      9.0189361446      5.7062043317     13.1150107862
   P      7.4269620043      0.5098707353     13.0460014006
   P      5.0267371655      3.6498877200     16.0652604442
   O      5.9831151467      8.2000646876     14.6632719589
   O      8.2927263744      6.3576837140     14.3832831271
   O      8.1415650626      1.1598225065     14.3313452846
   O      5.7890788522      3.0894622600     14.7183879929
   O      6.1253111845      7.8690373328     17.1035049270
   O      8.4493836480      6.5293942263     11.9323490247
   O      7.9640869801      1.3661642135     11.8681752106
   O      5.6014761708      2.7371592562     17.1392935214
   O      5.5250332880      5.1415327486     16.0509734209
   O      8.0273136727      9.2821925777     13.0524716339
   O      8.2241308030      3.5638030964     15.9021713882
   O      5.8904841913      0.5852616502     13.1565191206
   O      5.8370579225      5.7734276733     13.1793733023
   O      8.4812187241      4.2466420234     13.1178058535
   O      6.1456383375      0.0375815742     16.0205786122
   O      8.2493170361      8.7289909071     15.9199232074
   O      8.3814779554      6.3017885625     17.4347732541
   H      7.5019151141      6.7626252935     17.5157264355
