&CONTROL 
 calculation = 'scf' 
 restart_mode = 'from_scratch'
 nstep = 1 
 outdir= './OER' 
 pseudo_dir = "~/PSEUDO"
dipfield = .TRUE. 
 tefield = .TRUE. 
 wf_collect = .TRUE. 
 disk_io = 'none' 
 tprnfor = .true.
 / 

 &SYSTEM
ibrav = 0
    degauss = 0.01
    ecutrho = 500
    ecutwfc = 50
    nat = 158
    nspin = 2
    ntyp = 5
    occupations = 'smearing'
    smearing = 'gaussian'
    vdw_corr = 'DFT-D'
    starting_magnetization(1) = 1
    starting_magnetization(2) = 1
    starting_magnetization(3) = 1
    starting_magnetization(4) = 1
    edir = 3
    eamp = 0.0
    emaxpos = 0.75
/
&ELECTRONS
    electron_maxstep = 150
    mixing_beta = 0.1
    startingpot = 'atomic'
    startingwfc = 'atomic+random'
    scf_must_converge = .FALSE.
    mixing_mode = 'local-TF'
/
&IONS
    ion_dynamics = 'bfgs'
/
K_POINTS gamma
ATOMIC_SPECIES
  Ni   58.693   Ni.pbe-n-rrkjus_psl.1.0.0.UPF
  Mn   54.938   Mn.pbe-spn-rrkjus_psl.0.3.1.UPF
  P    30.973   P.pbe-n-rrkjus_psl.1.0.0.UPF
  O    15.999   O.pbe-rrkjus.UPF
  H    1.0079   H.pbe-rrkjus.UPF

CELL_PARAMETERS angstrom
9.3666399000  0.0000000000  0.0000000000
  0.0000000000  10.0759721600  0.0000000000
  0.0000000000  0.0000000000  31.9043898325

ATOMIC_POSITIONS {angstrom} 
  Mn      2.3554523579      7.8713693145     15.8508356832
  Ni      4.6660973014      7.2424488930     12.8312656191
  Ni      0.0153614635      2.7773847969     15.7014422329
  Ni      2.4399316029      2.2337773605     12.8087429535
  Ni      9.3445287519     10.0815721954     14.3613736618
  Ni      2.4001391199      5.0327411575     14.3416126568
  Ni      7.0577395838      7.8071877958     15.7000431102
  Ni      9.2879435214      7.2439485390     12.8522689018
  Ni      4.8147817684      2.8537529130     15.9850731196
  Ni      7.1206987179      2.2171597052     12.8141293039
  Ni      4.6898790007     10.0951724291     14.3709105469
  Ni      7.0683673699      4.9988145793     14.3715882483
   P      1.9804112429      9.1144132302     12.9139262172
   P      4.3809732776      6.0571413579     15.8144929389
   P      2.6969806021      1.0919846928     15.8250543491
   P      0.4056153502      4.0483189103     12.8487567813
   O      1.2685418479      8.4526858658     14.2020378832
   O      3.6543720207      6.6452731156     14.4687589790
   O      3.4221221339      1.5951540299     14.4727062800
   O      1.1432948086      3.3921779859     14.1234653910
   O      1.3896364847      8.2538717364     11.7703054763
   O      3.8131770805      6.9889614932     16.8998444047
   O      3.2355784488      2.0028104529     16.9187588298
   O      0.9690047640      3.2290926559     11.6626182806
   O      0.9581247312      5.5047810769     12.8888892394
   O      3.2073641314      9.6750640917     15.8923666437
   O      3.5543276039      3.9924035846     12.9485891348
   O      1.1469216116      1.0840013031     15.7187797928
   O      1.2239252979      6.1173201343     15.7489970815
   O      3.8035700118      4.6125092140     15.8056223681
   O      1.4100682205      0.4799165585     12.9001435516
   O      3.5133385074      9.0380169036     12.9901460706
   P      6.6577789452      9.0945943018     12.8534381702
   P      9.0389273739      6.0470619019     15.8735427917
   P      7.3942784128      0.9838347067     15.8664620529
   P      5.0940532952      4.0232043648     12.8638983717
   O      5.9263200657      8.4302998652     14.1268001858
   O      8.3162370808      6.6107526827     14.5037294272
   O      8.1005337985      1.5914990545     14.5089862956
   O      5.8082074357      3.3482956105     14.1366897064
   O      6.0894716398      8.2687431899     11.6713011649
   O      8.4767791429      6.9621943601     16.9489059431
   O      7.9916001867      1.8634355582     16.9622570217
   O      5.6582388678      3.2021905216     11.6733064415
   O      5.6670292085      5.4752447561     12.8945758402
   O      7.9324924178      9.5881407248     15.8317862418
   O      8.2376941722      3.9759894790     12.9698892476
   O      5.8499033094      1.0138064017     15.7686047054
   O      5.9192940477      6.1091043611     15.7028709443
   O      8.5389186166      4.5668228083     15.8579046326
   O      6.1023324357      0.4699034327     12.8892596944
   O      8.1937547080      9.0213455698     12.9699690280
  Mn      2.2524368768      7.7240452976     10.0236323639
  Ni      4.6534647676      7.1202901005      6.9822425005
  Ni      0.0619603813      2.6337384440      9.9556760802
  Ni      2.4219525798      2.0896438093      6.9510492594
  Ni      9.3547912696      9.9019397956      8.4440186395
  Ni      2.3579554440      4.8758940102      8.4680010131
  Ni      6.9796879716      7.6924726712      9.9737552430
  Ni      9.3096730862      7.1316559318      6.9896902714
  Ni      4.7877892837      2.6218843324      9.9455480718
  Ni      7.1245715506      2.0553708916      6.9486854554
  Ni      4.7058610954      9.8941863400      8.4294293279
  Ni      7.0530582306      4.8640817481      8.4531033399
   P      1.9603854589      8.9977651159      7.0482873394
   P      4.3608513788      5.8397436861      9.9242203128
   P      2.7263470654      0.8452909389      9.9041174682
   P      0.3711210654      3.8997822466      6.9978917740
   O      1.2123972175      8.3253929520      8.2981876587
   O      3.6291095674      6.4909496873      8.6481394006
   O      3.4680363025      1.4891875754      8.6265731291
   O      1.1093829690      3.2390247331      8.2722091938
   O      1.3596349964      8.1732983076      5.8844425164
   O      3.7923299398      6.6696755998     11.1017409419
   O      3.3003412998      1.6632003659     11.0846454462
   O      0.9531584297      3.0774745500      5.8198181531
   O      0.9136186619      5.3618137311      7.0362164392
   O      3.2629172638      9.5446340885      9.9282608343
   O      3.5446225228      3.8405128423      7.0821078828
   O      1.1879123926      0.8833017255      9.8135924863
   O      1.1354873087      5.9002852466      9.8415499985
   O      3.7965946052      4.3877760984      9.8998794461
   O      1.4392974591      0.3016087220      7.0217319728
   O      3.4959570534      8.9046787901      7.1310821586
   P      6.6688818178      8.9648664905      7.0220839690
   P      9.0062189322      5.8433568154      9.9351828548
   P      7.4256001189      0.7916169815      9.9078014654
   P      5.0827169838      3.8822476802      6.9867459032
   O      5.9261601580      8.3047134747      8.2957315165
   O      8.2821359139      6.5175804600      8.6592372243
   O      8.1641303211      1.4544857869      8.6326835892
   O      5.8185662143      3.2162709709      8.2602842260
   O      6.0955409502      8.1372002858      5.8430941221
   O      8.4431397248      6.6873528892     11.1081253718
   O      8.0075057281      1.6138667826     11.0849006204
   O      5.6616365268      3.0477094258      5.8162644606
   O      5.6428606763      5.3373221456      7.0164591929
   O      7.9606510584      9.4880010964      9.9237323917
   O      8.2411397074      3.8224416068      7.0850651702
   O      5.8887324813      0.8521033415      9.8092820433
   O      5.8962744512      5.9036412465      9.8325045456
   O      8.4527730620      4.3886428208      9.9038173381
   O      6.1330998669      0.2679537444      6.9999548578
   O      8.2056512655      8.9055106833      7.1237153000
  Mn      2.2524368768      7.6070420221      4.2173679033
  Ni      4.6534647676      7.0032868250      1.1759780399
  Ni      0.0619603813      2.5167351685      4.1494116195
  Ni      2.4219525798      1.9726405338      1.1447847987
  Ni      9.3547912696      9.7849365202      2.6377541788
  Ni      2.3579554440      4.7588907347      2.6617365524
  Ni      6.9796879716      7.5754693957      4.1674907823
  Ni      9.3096730862      7.0146526563      1.1834258107
  Ni      4.7877892837      2.5048810569      4.1392836112
  Ni      7.1245715506      1.9383676161      1.1424209947
  Ni      4.7058610954      9.7771830645      2.6231648672
  Ni      7.0530582306      4.7470784726      2.6468388792
   P      1.9603854589      8.8807618404      1.2420228787
   P      4.3608513788      5.7227404107      4.1179558521
   P      2.7263470654      0.7282876635      4.0978530075
   P      0.3711210654      3.7827789711      1.1916273134
   O      1.2123972175      8.2083896765      2.4919231980
   O      3.6291095674      6.3739464118      2.8418749399
   O      3.4680363025      1.3721842999      2.8203086685
   O      1.1093829690      3.1220214576      2.4659447331
   O      1.3596349964      8.0562950321      0.0781780558
   O      3.7923299398      6.5526723243      5.2954764813
   O      3.3003412998      1.5461970904      5.2783809855
   O      0.9531584297      2.9604712745      0.0135536924
   O      0.9136186619      5.2448104556      1.2299519786
   O      3.2629172638      9.4276308131      4.1219963736
   O      3.5446225228      3.7235095668      1.2758434221
   O      1.1879123926      0.7662984500      4.0073280256
   O      1.1354873087      5.7832819711      4.0352855378
   O      3.7965946052      4.2707728229      4.0936149854
   O      1.4392974591      0.1846054465      1.2154675122
   O      3.4959570534      8.7876755146      1.3248176979
   P      6.6688818178      8.8478632150      1.2158195084
   P      9.0062189322      5.7263535399      4.1289183942
   P      7.4256001189      0.6746137060      4.1015370047
   P      5.0827169838      3.7652444047      1.1804814425
   O      5.9261601580      8.1877101992      2.4894670559
   O      8.2821359139      6.4005771845      2.8529727636
   O      8.1641303211      1.3374825114      2.8264191286
   O      5.8185662143      3.0992676954      2.4540197653
   O      6.0955409502      8.0201970103      0.0368296614
   O      8.4431397248      6.5703496137      5.3018609112
   O      8.0075057281      1.4968635071      5.2786361598
   O      5.6616365268      2.9307061503      0.0100000000
   O      5.6428606763      5.2203188701      1.2101947322
   O      7.9606510584      9.3709978209      4.1174679311
   O      8.2411397074      3.7054383313      1.2788007096
   O      5.8887324813      0.7351000660      4.0030175826
   O      5.8962744512      5.7866379710      4.0262400850
   O      8.4527730620      4.2716395453      4.0975528774
   O      6.1330998669      0.1509504689      1.1936903972
   O      8.2056512655      8.7885074078      1.3174508394
   O      5.8432472017      3.6160227704     17.2729270205
   H      6.6333652035      3.0515358329     17.5061344585
