&CONTROL 
 calculation = 'scf' 
 restart_mode = 'from_scratch'
 nstep = 1 
 outdir= './OER' 
 pseudo_dir = "~/PSEUDO"
dipfield = .TRUE. 
 tefield = .TRUE. 
 wf_collect = .TRUE. 
 disk_io = 'none' 
 tprnfor = .true.
 / 

 &SYSTEM
ibrav = 0
    degauss = 0.01
    ecutrho = 500
    ecutwfc = 50
    nat = 158
    nspin = 2
    ntyp = 5
    occupations = 'smearing'
    smearing = 'gaussian'
    vdw_corr = 'DFT-D'
    starting_magnetization(1) = 1
    starting_magnetization(2) = 1
    starting_magnetization(3) = 1
    starting_magnetization(4) = 1
    edir = 3
    eamp = 0.0
    emaxpos = 0.75
/

&ELECTRONS
    electron_maxstep = 150
    mixing_beta = 0.1
    startingpot = 'atomic'
    startingwfc = 'atomic+random'
    scf_must_converge = .FALSE.
    mixing_mode = 'local-TF'
/

&IONS
    ion_dynamics = 'bfgs'
/

K_POINTS gamma

ATOMIC_SPECIES
  Ni   58.693   Ni.pbe-n-rrkjus_psl.1.0.0.UPF
  Mn   54.938   Mn.pbe-spn-rrkjus_psl.0.3.1.UPF
  P    30.973   P.pbe-n-rrkjus_psl.1.0.0.UPF
  O    15.999   O.pbe-rrkjus.UPF
  H    1.0079   H.pbe-rrkjus.UPF

CELL_PARAMETERS angstrom
9.4474829294  0.0000000000  0.0000000000
  0.0305814238  10.2221506046  0.0000000000
  0.0000000000  0.0000000000  32.1655934253

ATOMIC_POSITIONS {angstrom} 
  Ni      2.3129220139      7.8972772973      1.1497545064
  Ni      4.6490610887      7.3047442111      4.1936894858
  Mn      0.1067761731      2.7576721292      1.0963917518
  Ni      2.4432273613      2.1432234008      4.1735462030
  Ni      9.4662145937     10.1142894701      2.6789495920
  Ni      2.3789698370      5.0440683314      2.6674809569
  Ni      6.9920813749      7.8878789031      1.1579062906
  Mn      9.3406898946      7.2753604651      4.2439743133
  Mn      4.8308954384      2.7819693590      1.0948616820
  Ni      7.1431070376      2.1387615578      4.1784309036
  Ni      4.7326084235     10.1203689183      2.6666558403
  Ni      7.0827571848      5.0417436272      2.6777908576
   P      2.0291231354      9.1516784506      4.1405151098
   P      4.3528117572      6.0859892383      1.1954218952
   P      2.7239152584      0.8629939071      1.1958169163
   P      0.3863836581      3.9885723945      4.1143414694
   O      1.3045687173      8.5101215718      2.8561821687
   O      3.6065187097      6.7206402390      2.4795955832
   O      3.4373384109      1.5196724811      2.4794137179
   O      1.1408481055      3.3498458294      2.8542917983
   O      1.4664322300      8.3114829540      5.3143601271
   O      3.8005527481      6.9136385589      0.0100000000
   O      3.2639580632      1.7231876877      0.0248805985
   O      0.9608270792      3.1601630306      5.2857321047
   O      0.9164761464      5.4518725145      4.1063056435
   O      3.3388968874      9.6399059777      1.2004979284
   O      3.5692814975      3.9418697628      4.0255988330
   O      1.1867656938      0.9013490877      1.2963392800
   O      1.1640886725      6.1242569315      1.3086390258
   O      3.8059495922      4.6272192177      1.2184590528
   O      1.4275620920      0.3831464040      4.1285299573
   O      3.5678946412      9.0925343002      4.0512308031
   P      6.6933239351      9.1471654079      4.1517445120
   P      9.0725636199      6.0555136571      1.2210574959
   P      7.4405864459      0.8500557470      1.2037018964
   P      5.1065078778      4.0365506749      4.1233117458
   O      5.9741939775      8.4816003245      2.8688888472
   O      8.3228984798      6.7000803377      2.4819585481
   O      8.1541738250      1.4995408786      2.4908163165
   O      5.8598774446      3.3806679847      2.8665919296
   O      6.1400698649      8.2878954395      5.3197941026
   O      8.4934485675      6.8810405934      0.0514189482
   O      7.9815748019      1.7063608711      0.0289643815
   O      5.6903095574      3.2051642990      5.2910339913
   O      5.6309097860      5.5042271625      4.1061970179
   O      8.0445535812      9.6215199712      1.2108195277
   O      8.2945500610      3.9196666124      4.0255568094
   O      5.9057721073      0.9042847376      1.3008190970
   O      5.8930128638      6.1234667375      1.3022125571
   O      8.5386786436      4.5946304697      1.2351206656
   O      6.1018811736      0.3803315516      4.1360884007
   O      8.2310575070      9.1028906560      4.0488489665
  Ni      2.2865932276      7.7185113740      7.0776541678
  Ni      4.6227323024      7.1259782878     10.1215891471
  Mn      0.0804473868      2.5789062059      7.0242914132
  Ni      2.4168985750      1.9644574775     10.1014458644
  Ni      9.4398858074      9.9355235468      8.6068492533
  Ni      2.3526410507      4.8653024081      8.5953806183
  Ni      6.9657525885      7.7091129798      7.0858059520
  Mn      9.3143611083      7.0965945418     10.1718739746
  Mn      4.8045666521      2.6032034357      7.0227613433
  Ni      7.1167782512      1.9599956345     10.1063305650
  Ni      4.7062796372      9.9416029950      8.5945555017
  Ni      7.0564283985      4.8629777039      8.6056905189
   P      2.0027943491      8.9729125273     10.0684147711
   P      4.3264829709      5.9072233150      7.1233215566
   P      2.6975864721      0.6842279838      7.1237165776
   P      0.3600548718      3.8098064712     10.0422411307
   O      1.2782399310      8.3313556485      8.7840818301
   O      3.5801899233      6.5418743157      8.4074952445
   O      3.4110096246      1.3409065578      8.4073133792
   O      1.1145193192      3.1710799061      8.7821914596
   O      1.4401034437      8.1327170307     11.2422597885
   O      3.7742239617      6.7348726356      5.9378996613
   O      3.2376292769      1.5444217644      5.9527802599
   O      0.9344982929      2.9813971073     11.2136317660
   O      0.8901473601      5.2731065912     10.0342053048
   O      3.3125681011      9.4611400544      7.1283975898
   O      3.5429527111      3.7631038396      9.9534984944
   O      1.1604369075      0.7225831644      7.2242389413
   O      1.1377598861      5.9454910082      7.2365386871
   O      3.7796208059      4.4484532944      7.1463587142
   O      1.4012333057      0.2043804807     10.0564296187
   O      3.5415658549      8.9137683769      9.9791304644
   P      6.6669951488      8.9683994847     10.0796441734
   P      9.0462348336      5.8767477338      7.1489571572
   P      7.4142576596      0.6712898237      7.1316015577
   P      5.0801790915      3.8577847517     10.0512114071
   O      5.9478651911      8.3028344013      8.7967885085
   O      8.2965696935      6.5213144144      8.4098582094
   O      8.1278450387      1.3207749553      8.4187159778
   O      5.8335486583      3.2019020614      8.7944915909
   O      6.1137410786      8.1091295162     11.2476937640
   O      8.4671197812      6.7022746701      5.9793186095
   O      7.9552460155      1.5275949478      5.9568640428
   O      5.6639807711      3.0263983758     11.2189336526
   O      5.6045809997      5.3254612392     10.0340966792
   O      8.0182247949      9.4427540480      7.1387191890
   O      8.2682212747      3.7409006891      9.9534564707
   O      5.8794433210      0.7255188143      7.2287187584
   O      5.8666840775      5.9447008142      7.2301122184
   O      8.5123498573      4.4158645464      7.1630203269
   O      6.0755523873      0.2015656283     10.0639880620
   O      8.2047287207      8.9241247327      9.9767486279
  Ni      2.2787542634      7.5622193486     13.0013393518
  Ni      4.7112092247      6.9493494259     15.8662708218
  Mn      0.0549633500      2.4371802334     12.9888145112
  Ni      2.3099378436      1.8580103540     15.8978587387
  Ni      9.4219923048      9.7995643697     14.5674517717
  Ni      2.3072580758      4.7125623975     14.5605110292
  Ni      6.9495287852      7.5478836011     13.0109756169
  Mn      9.4058570491      6.9670087925     16.0429312718
  Mn      4.8031691737      2.4544429950     12.9814544539
  Ni      7.0916709574      1.7731658276     16.2093659338
  Ni      4.7235668100      9.7823068770     14.5192905502
  Ni      7.0116708555      4.6684437907     14.5937314408
   P      2.0165842298      8.7914572169     15.9934058851
   P      4.3007447856      5.7047768649     13.0301889375
   P      2.6896760408      0.5386323791     13.0401463738
   P      0.3072547359      3.6508419138     16.0884464923
   O      1.2751745031      8.2255116412     14.6495386845
   O      3.5561336298      6.3502200763     14.3121823583
   O      3.4069569452      1.1906055152     14.3195090067
   O      1.0323721323      3.0996733147     14.7301863910
   O      1.4282639289      7.8789127293     17.0801820485
   O      3.7456046226      6.5439304402     11.8515795588
   O      3.2358026943      1.3951043790     11.8673616841
   O      0.9074099025      2.7540818603     17.1688544536
   O      0.8304955201      5.1363212223     16.0894230188
   O      3.2956047174      9.3140999841     13.0392432463
   O      3.4688659614      3.5885396807     15.8837311309
   O      1.1519089543      0.6117010446     13.1645529257
   O      1.1143526216      5.7747967933     13.2000262731
   O      3.7327959854      4.2533590870     13.0509258497
   O      1.4681933413      0.0435020762     16.0319849018
   O      3.5571493680      8.7035595224     15.8820521624
   P      6.6768057834      8.7305168500     16.0195040659
   P      9.0231349979      5.6973677165     13.1111336552
   P      7.4068630106      0.5355703847     13.0600379299
   P      5.0203263935      3.6280384513     16.0309664269
   O      5.9533930421      8.1542048370     14.6441554156
   O      8.2963452311      6.3114349881     14.4042503504
   O      8.1098041256      1.1969123143     14.3311444893
   O      5.7643196784      3.0647982156     14.7036687362
   O      6.1380709282      7.7744802655     17.0776386710
   O      8.4577132077      6.5485253498     11.9509191630
   O      7.9527335840      1.3765589400     11.8696831082
   O      5.5579372589      2.7247459874     17.1359433239
   O      5.5343219226      5.1170104472     16.0300395701
   O      7.9956403289      9.3009797951     13.0697397298
   O      8.2113798304      3.6188769365     15.9631571423
   O      5.8652394416      0.6010082315     13.1400212365
   O      5.8377693502      5.7452297709     13.1590765042
   O      8.4782272661      4.2414778196     13.0948366895
   O      6.0905420363     -0.0348376945     15.9904203588
   O      8.2280516884      8.6683080248     15.8805052865
   O      8.2199188349      0.9454215281     17.3566220031
   H      9.0047941520      1.4995271822     17.6043298813
