&CONTROL 
 calculation = 'scf' 
 restart_mode = 'from_scratch'
 nstep = 1 
 outdir= './OER' 
 pseudo_dir = "~/PSEUDO"
dipfield = .TRUE. 
 tefield = .TRUE. 
 wf_collect = .TRUE. 
 disk_io = 'none' 
 tprnfor = .true.
 / 

 &SYSTEM
ibrav = 0
    degauss = 0.01
    ecutrho = 500
    ecutwfc = 50
    nat = 158
    nspin = 2
    ntyp = 5
    occupations = 'smearing'
    smearing = 'gaussian'
    vdw_corr = 'DFT-D'
    starting_magnetization(1) = 1
    starting_magnetization(2) = 1
    starting_magnetization(3) = 1
    starting_magnetization(4) = 1
    edir = 3
    eamp = 0.0
    emaxpos = 0.75
/
&ELECTRONS
    electron_maxstep = 150
    mixing_beta = 0.1
    startingpot = 'atomic'
    startingwfc = 'atomic+random'
    scf_must_converge = .FALSE.
    mixing_mode = 'local-TF'
/
&IONS
    ion_dynamics = 'bfgs'
/
K_POINTS gamma
ATOMIC_SPECIES
  Ni   58.693   Ni.pbe-n-rrkjus_psl.1.0.0.UPF
  Mn   54.938   Mn.pbe-spn-rrkjus_psl.0.3.1.UPF
  P    30.973   P.pbe-n-rrkjus_psl.1.0.0.UPF
  O    15.999   O.pbe-rrkjus.UPF
  H    1.0079   H.pbe-rrkjus.UPF

CELL_PARAMETERS angstrom
9.2112444241  0.0000000000  0.0000000000
  -0.0129335416  10.1848326152  0.0000000000
  0.0000000000  0.0000000000  32.4277113867

ATOMIC_POSITIONS {angstrom} 
  Ni      2.3183997914      7.9524804769     16.0859933318
  Mn      4.4754692739      7.2990563585     13.1687617502
  Ni     -0.0045688719      2.8113349877     16.0582429907
  Ni      2.3626669759      2.2466948791     13.1668775167
  Ni      4.5818727265     10.2236445373     14.7231806959
  Ni      2.3239793820      5.0794612921     14.7417845356
   P      1.9178648777      9.2438376720     13.1783286885
   P      4.2526796577      6.1543098167     16.2807005697
   P      2.6409334125      1.0623847648     16.1644738961
   P      0.3635846582      4.0827302070     13.1874395310
   O      1.2255903500      8.5722934162     14.4651426490
   O      3.5229140833      6.7489252108     14.9191625000
   O      3.3462553870      1.6176155117     14.8162039656
   O      1.0886856250      3.4272414852     14.4663217015
   O      1.3793183459      8.3984873445     11.9991899256
   O      3.7071620941      7.0922371072     17.3476935593
   O      3.1656443375      1.9792510322     17.2651195303
   O      0.9173707884      3.2804862761     11.9894411949
   O      0.9074588597      5.5438623904     13.2403343181
   O      3.1461759083      9.7637022556     16.1974288649
   O      3.4293178410      4.0389242558     13.3094394024
   O      1.0928849972      1.0879191685     16.0518530837
   O      1.1995842891      6.1948578819     16.1026488409
   O      3.7023932153      4.6912110800     16.2111346503
   O      1.3519749153      0.5005122298     13.1935051813
   O      3.4510170387      9.1717763354     13.2938166004
  Ni      2.2231694467      7.8387150113     10.2441428465
  Mn      4.5291854344      7.1731699804      7.1554177006
  Ni      0.0413377460      2.7013109415     10.2603882940
  Ni      2.3609701921      2.0961861161      7.1899515213
  Ni      4.5771780352     10.0853977451      8.7130228178
  Ni      2.2920501783      4.9198282349      8.7227910824
   P      1.9122808731      9.1033963050      7.2173607613
   P      4.2159980376      5.9505261806     10.2027763372
   P      2.6546169098      0.8591972239     10.2283303116
   P      0.3619242519      3.9045525432      7.2190763494
   O      1.2036838524      8.4272438680      8.5052521184
   O      3.4908594272      6.6070736456      8.9170848147
   O      3.3665734522      1.5317059583      8.9373367535
   O      1.0719826629      3.2671856475      8.5242565260
   O      1.3843584724      8.2616841471      6.0256206039
   O      3.6610322847      6.7741729017     11.3943375015
   O      3.2083661661      1.6483492612     11.4336134640
   O      0.8980336260      3.1100721707      6.0140979227
   O      0.9070304683      5.3599334065      7.2594010652
   O      3.1870699093      9.5847542147     10.1494340391
   O      3.4373778089      3.8725200731      7.3188449707
   O      1.1269987174      0.9116358839     10.1328903704
   O      1.1379920588      6.0211801669     10.1144969906
   O      3.6884944322      4.4881192592     10.1758874244
   O      1.3600796965      0.3668542279      7.2516081594
   O      3.4345382286      9.0669591473      7.3057765327
  Ni      2.2162947113      7.7473428066      4.2400449238
  Mn      4.5223106990      7.0817977756      1.1513197779
  Ni      0.0344630106      2.6099387368      4.2562903713
  Ni      2.3540954567      2.0048139114      1.1858535986
  Ni      4.5703032998      9.9940255404      2.7089248952
  Ni      2.2851754429      4.8284560302      2.7186931597
   P      1.9054061377      9.0120241003      1.2132628386
   P      4.2091233022      5.8591539759      4.1986784145
   P      2.6477421744      0.7678250192      4.2242323889
   P      0.3550495165      3.8131803385      1.2149784268
   O      1.1968091169      8.3358716633      2.5011541957
   O      3.4839846918      6.5157014409      2.9129868921
   O      3.3596987168      1.4403337535      2.9332388308
   O      1.0651079275      3.1758134427      2.5201586033
   O      1.3774837370      8.1703119424      0.0215226813
   O      3.6541575493      6.6828006969      5.3902395788
   O      3.2014914307      1.5569770565      5.4295155413
   O      0.8911588906      3.0186999659      0.0100000000
   O      0.9001557329      5.2685612018      1.2553031425
   O      3.1801951739      9.4933820100      4.1453361164
   O      3.4305030735      3.7811478683      1.3147470481
   O      1.1201239820      0.8202636792      4.1287924477
   O      1.1311173233      5.9298079622      4.1103990679
   O      3.6816196968      4.3967470545      4.1717895017
   O      1.3532049611      0.2754820232      1.2475102367
   O      3.4276634932      8.9755869426      1.3016786101
  Ni      6.9189730319      7.9133669981     16.0876072679
  Mn      9.0747208809      7.3040342335     13.1660097376
  Ni      4.6968690820      2.9006420356     16.3660359891
  Ni      6.9660395282      2.2484418752     13.1805936895
  Ni      9.1805357049     10.1967336634     14.6960537713
  Ni      6.9093864108      5.0520466338     14.7785950530
   P      6.5162648973      9.2421807371     13.1867792763
   P      8.8735982896      6.1178519599     16.2796879523
   P      7.2595268623      0.9977057366     16.2269530650
   P      4.9662798786      4.0610909892     13.2186870963
   O      5.8314674544      8.5742290522     14.4740873806
   O      8.1362811663      6.6947061793     14.9239132682
   O      7.9462273334      1.6095957685     14.8623985123
   O      5.6755949579      3.3900747603     14.4909582919
   O      5.9798884676      8.4026967922     12.0025255156
   O      8.3001574998      7.0266604148     17.3549478552
   O      7.8605386531      1.8799864956     17.3211708285
   O      5.5163355260      3.2669233819     12.0095098513
   O      5.5108602785      5.5260471539     13.2728618097
   O      7.7781536536      9.7094783510     16.1902391547
   O      8.0418744220      4.0309265552     13.3188179510
   O      5.7186496005      1.0470324153     16.1311877907
   O      5.7890868110      6.2051344655     16.0884919334
   O      8.3834312053      4.6272351196     16.2363363973
   O      5.9667358860      0.5037159363     13.2154442030
   O      8.0521278339      9.1617464777     13.2905183188
  Ni      6.8287916588      7.8387150113     10.2441428465
  Mn      9.1348076465      7.1731699804      7.1554177006
  Ni      4.6469599580      2.7013109415     10.2603882940
  Ni      6.9665924042      2.0961861161      7.1899515213
  Ni      9.1828002472     10.0853977451      8.7130228178
  Ni      6.8976723903      4.9198282349      8.7227910824
   P      6.5179030852      9.1033963050      7.2173607613
   P      8.8216202497      5.9505261806     10.2027763372
   P      7.2602391219      0.8591972239     10.2283303116
   P      4.9675464640      3.9045525432      7.2190763494
   O      5.8093060644      8.4272438680      8.5052521184
   O      8.0964816393      6.6070736456      8.9170848147
   O      7.9721956643      1.5317059583      8.9373367535
   O      5.6776048750      3.2671856475      8.5242565260
   O      5.9899806845      8.2616841471      6.0256206039
   O      8.2666544968      6.7741729017     11.3943375015
   O      7.8139883782      1.6483492612     11.4336134640
   O      5.5036558380      3.1100721707      6.0140979227
   O      5.5126526804      5.3599334065      7.2594010652
   O      7.7926921213      9.5847542147     10.1494340391
   O      8.0430000209      3.8725200731      7.3188449707
   O      5.7326209294      0.9116358839     10.1328903704
   O      5.7436142708      6.0211801669     10.1144969906
   O      8.2941166443      4.4881192592     10.1758874244
   O      5.9657019086      0.3668542279      7.2516081594
   O      8.0401604407      9.0669591473      7.3057765327
  Ni      6.8219169233      7.7473428066      4.2400449238
  Mn      9.1279329110      7.0817977756      1.1513197779
  Ni      4.6400852226      2.6099387368      4.2562903713
  Ni      6.9597176688      2.0048139114      1.1858535986
  Ni      9.1759255118      9.9940255404      2.7089248952
  Ni      6.8907976549      4.8284560302      2.7186931597
   P      6.5110283498      9.0120241003      1.2132628386
   P      8.8147455142      5.8591539759      4.1986784145
   P      7.2533643865      0.7678250192      4.2242323889
   P      4.9606717285      3.8131803385      1.2149784268
   O      5.8024313290      8.3358716633      2.5011541957
   O      8.0896069039      6.5157014409      2.9129868921
   O      7.9653209289      1.4403337535      2.9332388308
   O      5.6707301395      3.1758134427      2.5201586033
   O      5.9831059490      8.1703119424      0.0215226813
   O      8.2597797614      6.6828006969      5.3902395788
   O      7.8071136427      1.5569770565      5.4295155413
   O      5.4967811026      3.0186999659      0.0100000000
   O      5.5057779450      5.2685612018      1.2553031425
   O      7.7858173859      9.4933820100      4.1453361164
   O      8.0361252855      3.7811478683      1.3147470481
   O      5.7257461940      0.8202636792      4.1287924477
   O      5.7367395354      5.9298079622      4.1103990679
   O      8.2872419088      4.3967470545      4.1717895017
   O      5.9588271731      0.2754820232      1.2475102367
   O      8.0332857052      8.9755869426      1.3016786101
   O      5.7635524322      3.6578506314     17.6353370157
   H      6.5294174344      3.0755681286     17.8642742608
